*SPEF "ieee 1481-1999"
*DESIGN "UART"
*DATE "09:21:16 Tuesday August 18, 2026"
*VENDOR "The OpenROAD Project"
*PROGRAM "OpenROAD"
*VERSION "26Q3-1297-gcbc7678e45"
*DESIGN_FLOW "NAME_SCOPE LOCAL" "PIN_CAP NONE"
*DIVIDER /
*DELIMITER :
*BUS_DELIMITER []
*T_UNIT 1 NS
*C_UNIT 1 PF
*R_UNIT 1 OHM
*L_UNIT 1 HENRY

*NAME_MAP
*16 _000_
*17 _001_
*18 _002_
*19 _003_
*20 _004_
*21 _005_
*22 _006_
*23 _007_
*24 _008_
*25 _009_
*26 _010_
*27 _011_
*28 _012_
*29 _013_
*30 _014_
*31 _015_
*32 _016_
*33 _017_
*34 _018_
*35 _019_
*36 _020_
*37 _021_
*38 _022_
*39 _023_
*40 _024_
*41 _025_
*42 _026_
*43 _027_
*44 _028_
*45 _029_
*46 _030_
*47 _031_
*48 _032_
*49 _033_
*50 _034_
*51 _035_
*52 _036_
*53 _037_
*54 _038_
*55 _039_
*56 _040_
*57 _041_
*58 _042_
*59 _043_
*60 _044_
*61 _045_
*62 _046_
*63 _047_
*64 _048_
*65 _049_
*66 _050_
*67 _051_
*68 _052_
*69 _053_
*70 _054_
*71 _055_
*72 _056_
*73 _057_
*74 _058_
*75 _059_
*76 _060_
*77 _061_
*78 _062_
*79 _063_
*80 _064_
*81 _065_
*82 _066_
*83 _067_
*84 _068_
*85 _069_
*86 _070_
*87 _071_
*88 _072_
*89 _073_
*90 _074_
*91 _075_
*92 _076_
*93 _077_
*94 _078_
*95 _079_
*96 _080_
*97 _081_
*98 _082_
*99 _083_
*100 _084_
*101 _085_
*102 _086_
*103 _087_
*104 _088_
*105 _089_
*106 _090_
*107 _091_
*108 _092_
*109 _093_
*110 _094_
*111 _095_
*112 _096_
*113 _097_
*114 _098_
*115 _099_
*116 _100_
*117 _101_
*118 _102_
*119 _103_
*120 _104_
*121 _105_
*122 _106_
*123 _107_
*124 _108_
*125 _109_
*126 _110_
*127 _111_
*128 _112_
*129 _113_
*130 _114_
*131 _115_
*132 _116_
*133 _117_
*134 _118_
*135 _119_
*1 clk
*136 clknet_0_clk
*137 clknet_2_0__leaf_clk
*138 clknet_2_1__leaf_clk
*139 clknet_2_2__leaf_clk
*140 clknet_2_3__leaf_clk
*141 counter[0]
*142 counter[10]
*143 counter[11]
*144 counter[12]
*145 counter[1]
*146 counter[2]
*147 counter[3]
*148 counter[4]
*149 counter[5]
*150 counter[6]
*151 counter[7]
*152 counter[8]
*153 counter[9]
*154 current_bit[0]
*155 current_bit[1]
*156 current_bit[2]
*157 current_bit[3]
*158 current_byte[0]
*159 current_byte[1]
*160 current_byte[2]
*161 current_byte[3]
*162 current_byte[4]
*163 current_byte[5]
*164 current_byte[6]
*165 current_byte[7]
*2 empty
*3 output_data[0]
*4 output_data[1]
*5 output_data[2]
*6 output_data[3]
*7 output_data[4]
*8 output_data[5]
*9 output_data[6]
*10 output_data[7]
*11 read_en
*12 rst
*166 state[0]
*167 state[1]
*168 state[2]
*169 stop_delay
*13 tx
*170 FILLER_0_0
*171 FILLER_0_109
*172 FILLER_0_111
*173 FILLER_0_21
*174 FILLER_0_29
*175 FILLER_0_31
*176 FILLER_0_4
*177 FILLER_0_49
*178 FILLER_0_57
*179 FILLER_0_59
*180 FILLER_0_70
*181 FILLER_0_91
*182 FILLER_10_0
*183 FILLER_10_108
*184 FILLER_10_11
*185 FILLER_10_21
*186 FILLER_10_31
*187 FILLER_10_39
*188 FILLER_10_53
*189 FILLER_10_57
*190 FILLER_10_61
*191 FILLER_10_65
*192 FILLER_10_69
*193 FILLER_10_78
*194 FILLER_10_83
*195 FILLER_10_85
*196 FILLER_10_91
*197 FILLER_11_0
*198 FILLER_11_102
*199 FILLER_11_110
*200 FILLER_11_18
*201 FILLER_11_24
*202 FILLER_11_32
*203 FILLER_11_43
*204 FILLER_11_49
*205 FILLER_11_57
*206 FILLER_11_59
*207 FILLER_11_61
*208 FILLER_11_65
*209 FILLER_11_73
*210 FILLER_11_78
*211 FILLER_11_80
*212 FILLER_11_93
*213 FILLER_12_0
*214 FILLER_12_108
*215 FILLER_12_12
*216 FILLER_12_21
*217 FILLER_12_27
*218 FILLER_12_29
*219 FILLER_12_31
*220 FILLER_12_35
*221 FILLER_12_37
*222 FILLER_12_47
*223 FILLER_12_8
*224 FILLER_12_80
*225 FILLER_12_84
*226 FILLER_12_91
*227 FILLER_13_0
*228 FILLER_13_106
*229 FILLER_13_110
*230 FILLER_13_18
*231 FILLER_13_35
*232 FILLER_13_37
*233 FILLER_13_45
*234 FILLER_13_53
*235 FILLER_13_57
*236 FILLER_13_59
*237 FILLER_13_61
*238 FILLER_13_69
*239 FILLER_13_8
*240 FILLER_13_90
*241 FILLER_13_98
*242 FILLER_14_0
*243 FILLER_14_100
*244 FILLER_14_108
*245 FILLER_14_25
*246 FILLER_14_29
*247 FILLER_14_31
*248 FILLER_14_35
*249 FILLER_14_60
*250 FILLER_14_68
*251 FILLER_14_70
*252 FILLER_14_79
*253 FILLER_14_87
*254 FILLER_14_89
*255 FILLER_15_0
*256 FILLER_15_101
*257 FILLER_15_109
*258 FILLER_15_111
*259 FILLER_15_28
*260 FILLER_15_36
*261 FILLER_15_45
*262 FILLER_15_50
*263 FILLER_15_57
*264 FILLER_15_59
*265 FILLER_15_61
*266 FILLER_15_65
*267 FILLER_15_78
*268 FILLER_15_8
*269 FILLER_15_86
*270 FILLER_15_88
*271 FILLER_16_0
*272 FILLER_16_109
*273 FILLER_16_111
*274 FILLER_16_29
*275 FILLER_16_31
*276 FILLER_16_39
*277 FILLER_16_57
*278 FILLER_16_61
*279 FILLER_16_63
*280 FILLER_16_80
*281 FILLER_16_88
*282 FILLER_16_91
*283 FILLER_17_0
*284 FILLER_17_106
*285 FILLER_17_110
*286 FILLER_17_12
*287 FILLER_17_18
*288 FILLER_17_22
*289 FILLER_17_27
*290 FILLER_17_29
*291 FILLER_17_31
*292 FILLER_17_39
*293 FILLER_17_41
*294 FILLER_17_47
*295 FILLER_17_55
*296 FILLER_17_59
*297 FILLER_17_61
*298 FILLER_17_69
*299 FILLER_17_71
*300 FILLER_17_76
*301 FILLER_17_8
*302 FILLER_17_84
*303 FILLER_17_88
*304 FILLER_17_91
*305 FILLER_17_93
*306 FILLER_17_98
*307 FILLER_1_0
*308 FILLER_1_10
*309 FILLER_1_103
*310 FILLER_1_111
*311 FILLER_1_19
*312 FILLER_1_27
*313 FILLER_1_35
*314 FILLER_1_39
*315 FILLER_1_50
*316 FILLER_1_58
*317 FILLER_1_70
*318 FILLER_1_72
*319 FILLER_1_8
*320 FILLER_1_91
*321 FILLER_1_93
*322 FILLER_2_0
*323 FILLER_2_103
*324 FILLER_2_111
*325 FILLER_2_2
*326 FILLER_2_25
*327 FILLER_2_31
*328 FILLER_2_67
*329 FILLER_2_87
*330 FILLER_2_89
*331 FILLER_2_91
*332 FILLER_2_93
*333 FILLER_3_0
*334 FILLER_3_104
*335 FILLER_3_12
*336 FILLER_3_19
*337 FILLER_3_23
*338 FILLER_3_25
*339 FILLER_3_29
*340 FILLER_3_37
*341 FILLER_3_39
*342 FILLER_3_49
*343 FILLER_3_57
*344 FILLER_3_59
*345 FILLER_3_8
*346 FILLER_3_85
*347 FILLER_4_0
*348 FILLER_4_10
*349 FILLER_4_107
*350 FILLER_4_111
*351 FILLER_4_27
*352 FILLER_4_29
*353 FILLER_4_31
*354 FILLER_4_35
*355 FILLER_4_42
*356 FILLER_4_50
*357 FILLER_4_70
*358 FILLER_4_8
*359 FILLER_4_80
*360 FILLER_4_88
*361 FILLER_5_0
*362 FILLER_5_107
*363 FILLER_5_111
*364 FILLER_5_32
*365 FILLER_5_37
*366 FILLER_5_41
*367 FILLER_5_58
*368 FILLER_5_64
*369 FILLER_5_75
*370 FILLER_5_83
*371 FILLER_6_0
*372 FILLER_6_106
*373 FILLER_6_110
*374 FILLER_6_16
*375 FILLER_6_24
*376 FILLER_6_31
*377 FILLER_6_46
*378 FILLER_6_52
*379 FILLER_6_54
*380 FILLER_6_64
*381 FILLER_6_76
*382 FILLER_6_8
*383 FILLER_6_84
*384 FILLER_6_98
*385 FILLER_7_0
*386 FILLER_7_107
*387 FILLER_7_111
*388 FILLER_7_28
*389 FILLER_7_36
*390 FILLER_7_61
*391 FILLER_7_69
*392 FILLER_7_76
*393 FILLER_7_84
*394 FILLER_8_0
*395 FILLER_8_107
*396 FILLER_8_111
*397 FILLER_8_12
*398 FILLER_8_14
*399 FILLER_8_23
*400 FILLER_8_27
*401 FILLER_8_29
*402 FILLER_8_31
*403 FILLER_8_33
*404 FILLER_8_41
*405 FILLER_8_45
*406 FILLER_8_47
*407 FILLER_8_54
*408 FILLER_8_56
*409 FILLER_8_64
*410 FILLER_8_68
*411 FILLER_8_70
*412 FILLER_8_8
*413 FILLER_8_87
*414 FILLER_8_89
*415 FILLER_8_99
*416 FILLER_9_0
*417 FILLER_9_107
*418 FILLER_9_111
*419 FILLER_9_26
*420 FILLER_9_33
*421 FILLER_9_37
*422 FILLER_9_50
*423 FILLER_9_58
*424 FILLER_9_61
*425 FILLER_9_69
*426 FILLER_9_8
*427 FILLER_9_86
*428 FILLER_9_90
*429 FILLER_9_99
*430 TAP_TAPCELL_ROW_0_0
*431 TAP_TAPCELL_ROW_0_1
*432 TAP_TAPCELL_ROW_0_2
*433 TAP_TAPCELL_ROW_10_16
*434 TAP_TAPCELL_ROW_10_17
*435 TAP_TAPCELL_ROW_11_18
*436 TAP_TAPCELL_ROW_12_19
*437 TAP_TAPCELL_ROW_12_20
*438 TAP_TAPCELL_ROW_13_21
*439 TAP_TAPCELL_ROW_14_22
*440 TAP_TAPCELL_ROW_14_23
*441 TAP_TAPCELL_ROW_15_24
*442 TAP_TAPCELL_ROW_16_25
*443 TAP_TAPCELL_ROW_16_26
*444 TAP_TAPCELL_ROW_17_27
*445 TAP_TAPCELL_ROW_17_28
*446 TAP_TAPCELL_ROW_17_29
*447 TAP_TAPCELL_ROW_1_3
*448 TAP_TAPCELL_ROW_2_4
*449 TAP_TAPCELL_ROW_2_5
*450 TAP_TAPCELL_ROW_3_6
*451 TAP_TAPCELL_ROW_4_7
*452 TAP_TAPCELL_ROW_4_8
*453 TAP_TAPCELL_ROW_5_9
*454 TAP_TAPCELL_ROW_6_10
*455 TAP_TAPCELL_ROW_6_11
*456 TAP_TAPCELL_ROW_7_12
*457 TAP_TAPCELL_ROW_8_13
*458 TAP_TAPCELL_ROW_8_14
*459 TAP_TAPCELL_ROW_9_15
*460 _120_
*461 _121_
*462 _122_
*463 _123_
*464 _124_
*465 _125_
*466 _126_
*467 _127_
*468 _128_
*469 _129_
*470 _130_
*471 _131_
*472 _132_
*473 _133_
*474 _134_
*475 _135_
*476 _136_
*477 _137_
*478 _138_
*479 _139_
*480 _140_
*481 _141_
*482 _142_
*483 _143_
*484 _144_
*485 _145_
*486 _146_
*487 _147_
*488 _148_
*489 _149_
*490 _150_
*491 _151_
*492 _152_
*493 _153_
*494 _154_
*495 _155_
*496 _156_
*497 _157_
*498 _158_
*499 _159_
*500 _160_
*501 _161_
*502 _162_
*503 _163_
*504 _164_
*505 _165_
*506 _166_
*507 _167_
*508 _168_
*509 _169_
*510 _170_
*511 _171_
*512 _172_
*513 _173_
*514 _174_
*515 _175_
*516 _176_
*517 _177_
*518 _178_
*519 _179_
*520 _180_
*521 _181_
*522 _182_
*523 _183_
*524 _184_
*525 _185_
*526 _186_
*527 _187_
*528 _188_
*529 _189_
*530 _190_
*531 _191_
*532 _192_
*533 _193_
*534 _194_
*535 _195_
*536 _196_
*537 _197_
*538 _198_
*539 _199_
*540 _200_
*541 _201_
*542 _202_
*543 _203_
*544 _204_
*545 _205_
*546 _206_
*547 _207_
*548 _208_
*549 _209_
*550 _210_
*551 _211_
*552 _212_
*553 _213_
*554 _214_
*555 _215_
*556 _216_
*557 _217_
*558 _218_
*559 _219_
*560 _220_
*561 _221_
*562 _222_
*563 _223_
*564 _224_
*565 _225_
*566 _226_
*567 _227_
*568 _228_
*569 _229_
*570 _230_
*571 _231_
*572 _232_
*573 _233_
*574 _234_
*575 _235_
*576 _236_
*577 _237_
*578 _238_
*579 _239_
*580 _240_
*581 _241_
*582 _242_
*583 _243_
*584 _244_
*585 _245_
*586 _246_
*587 _247_
*588 _248_
*589 _249_
*590 _250_
*591 _251_
*592 _252_
*593 _253_
*594 _254_
*595 _255_
*596 _256_
*597 _257_
*598 _258_
*599 _259_
*600 _260_
*601 _261_
*602 _262_
*603 _263_
*604 _264_
*605 _265_
*606 _266_
*607 _267_
*608 _268_
*609 _269_
*610 _270_
*611 clkbuf_0_clk
*612 clkbuf_2_0__f_clk
*613 clkbuf_2_1__f_clk
*614 clkbuf_2_2__f_clk
*615 clkbuf_2_3__f_clk
*616 clkload0

*PORTS
clk I
empty I
output_data[0] I
output_data[1] I
output_data[2] I
output_data[3] I
output_data[4] I
output_data[5] I
output_data[6] I
output_data[7] I
read_en O
rst I
tx O

*D_NET *16 0.000335876
*CONN
*I *580:D I *D sky130_fd_sc_hd__dfxtp_1
*I *469:X O *D sky130_fd_sc_hd__mux2_1
*CAP
1 *580:D 0.000167938
2 *469:X 0.000167938
3 *3:15 *580:D 0
4 *6:15 *580:D 0
*RES
1 *469:X *580:D 31.4199 
*END

*D_NET *17 0.000547493
*CONN
*I *581:D I *D sky130_fd_sc_hd__dfxtp_1
*I *470:X O *D sky130_fd_sc_hd__mux2_1
*CAP
1 *581:D 0.000199623
2 *470:X 0.000199623
3 *581:D *470:A0 8.42523e-05
4 *581:D *477:A2 0
5 *581:D *477:S1 0
6 *581:D *479:A0 1.87611e-05
7 *581:D *159:12 4.52324e-05
*RES
1 *470:X *581:D 32.9771 
*END

*D_NET *18 0.000330454
*CONN
*I *582:D I *D sky130_fd_sc_hd__dfxtp_1
*I *471:X O *D sky130_fd_sc_hd__mux2_1
*CAP
1 *582:D 0.000117011
2 *471:X 0.000117011
3 *582:D *138:12 1.87611e-05
4 *582:D *138:51 4.61732e-05
5 *471:A1 *582:D 3.14978e-05
*RES
1 *471:X *582:D 30.3784 
*END

*D_NET *19 0.000662779
*CONN
*I *583:D I *D sky130_fd_sc_hd__dfxtp_1
*I *472:X O *D sky130_fd_sc_hd__mux2_1
*CAP
1 *583:D 0.000165556
2 *472:X 0.000165556
3 *583:D *580:CLK 0.000286895
4 *583:D *138:51 0
5 *4:17 *583:D 4.47713e-05
*RES
1 *472:X *583:D 33.2586 
*END

*D_NET *20 0.000490784
*CONN
*I *584:D I *D sky130_fd_sc_hd__dfxtp_1
*I *473:X O *D sky130_fd_sc_hd__mux2_1
*CAP
1 *584:D 0.000109147
2 *473:X 0.000109147
3 *584:D *586:D 0
4 *475:A1 *584:D 9.60216e-05
5 *2:17 *584:D 0.000176469
*RES
1 *473:X *584:D 31.3189 
*END

*D_NET *21 0.00158428
*CONN
*I *585:D I *D sky130_fd_sc_hd__dfxtp_1
*I *474:X O *D sky130_fd_sc_hd__mux2_1
*CAP
1 *585:D 0.000474231
2 *474:X 0.000474231
3 *585:D *488:A1 2.57966e-05
4 *585:D *587:D 0.000101133
5 tx *585:D 0.000185822
6 *474:A1 *585:D 3.28416e-06
7 *476:A1 *585:D 0.000148144
8 *12:9 *585:D 0
9 *12:17 *585:D 0.000171639
*RES
1 *474:X *585:D 42.0083 
*END

*D_NET *22 0.00141131
*CONN
*I *586:D I *D sky130_fd_sc_hd__dfxtp_1
*I *475:X O *D sky130_fd_sc_hd__mux2_1
*CAP
1 *586:D 0.000462253
2 *475:X 0.000462253
3 *586:D *137:18 0.000130777
4 *586:D *137:24 0.000346318
5 read_en *586:D 9.71182e-06
6 *475:A1 *586:D 0
7 *584:D *586:D 0
*RES
1 *475:X *586:D 39.5168 
*END

*D_NET *23 0.000918358
*CONN
*I *587:D I *D sky130_fd_sc_hd__dfxtp_1
*I *476:X O *D sky130_fd_sc_hd__mux2_1
*CAP
1 *587:D 0.000172034
2 *476:X 0.000172034
3 *587:D *138:16 0.000375996
4 *585:D *587:D 0.000101133
5 *2:17 *587:D 7.02539e-05
6 *12:9 *587:D 2.69064e-05
*RES
1 *476:X *587:D 33.5373 
*END

*D_NET *24 0.000248398
*CONN
*I *588:D I *D sky130_fd_sc_hd__dfxtp_1
*I *488:X O *D sky130_fd_sc_hd__a221o_1
*CAP
1 *588:D 6.24707e-05
2 *488:X 6.24707e-05
3 *588:D *488:A1 2.55493e-05
4 *588:D *157:14 7.50872e-05
5 *588:D *157:18 1.87611e-05
6 *488:B2 *588:D 4.05943e-06
*RES
1 *488:X *588:D 29.655 
*END

*D_NET *25 0.000548344
*CONN
*I *589:D I *D sky130_fd_sc_hd__dfxtp_1
*I *490:Y O *D sky130_fd_sc_hd__a21oi_1
*CAP
1 *589:D 0.000272578
2 *490:Y 0.000272578
3 *589:D *137:26 3.18826e-06
4 *489:B1 *589:D 0
*RES
1 *490:Y *589:D 32.3181 
*END

*D_NET *26 0.000400199
*CONN
*I *590:D I *D sky130_fd_sc_hd__dfxtp_1
*I *498:Y O *D sky130_fd_sc_hd__nor2_1
*CAP
1 *590:D 0.000177721
2 *498:Y 0.000177721
3 *590:D *591:CLK 0
4 *590:D *139:32 0
5 *12:89 *590:D 4.47578e-05
*RES
1 *498:Y *590:D 32.1494 
*END

*D_NET *27 0.00138251
*CONN
*I *591:D I *D sky130_fd_sc_hd__dfxtp_1
*I *502:Y O *D sky130_fd_sc_hd__a21oi_1
*CAP
1 *591:D 0.000230742
2 *502:Y 0.000230742
3 *591:D *496:B 0.000205332
4 *591:D *497:B1 0.000127194
5 *591:D *53:21 0.000172144
6 *591:D *53:36 0.000219154
7 *12:74 *591:D 5.66868e-06
8 *12:89 *591:D 0.000106255
9 *12:93 *591:D 8.52802e-05
*RES
1 *502:Y *591:D 38.5147 
*END

*D_NET *28 0.00063293
*CONN
*I *592:D I *D sky130_fd_sc_hd__dfxtp_1
*I *506:Y O *D sky130_fd_sc_hd__nor3_1
*CAP
1 *592:D 0.000290467
2 *506:Y 0.000290467
3 *592:D *506:B 0
4 *592:D *506:C 3.072e-06
5 *592:D *139:28 1.87611e-05
6 *592:D *139:32 3.01634e-05
*RES
1 *506:Y *592:D 32.5969 
*END

*D_NET *29 0.000931145
*CONN
*I *593:D I *D sky130_fd_sc_hd__dfxtp_1
*I *510:Y O *D sky130_fd_sc_hd__nor3_1
*CAP
1 *593:D 0.000125963
2 *510:Y 0.000125963
3 *593:D *51:98 9.68069e-06
4 *593:D *147:6 9.27623e-05
5 *593:D *150:20 0.000287646
6 *12:148 *593:D 0.00028913
*RES
1 *510:Y *593:D 33.8451 
*END

*D_NET *30 0.000443425
*CONN
*I *594:D I *D sky130_fd_sc_hd__dfxtp_1
*I *514:Y O *D sky130_fd_sc_hd__nor3_1
*CAP
1 *594:D 0.000171146
2 *514:Y 0.000171146
3 *594:D *514:B 0.000101133
4 *594:D *594:CLK 0
*RES
1 *514:Y *594:D 31.8735 
*END

*D_NET *31 0.00081731
*CONN
*I *595:D I *D sky130_fd_sc_hd__dfxtp_1
*I *518:Y O *D sky130_fd_sc_hd__nor3_1
*CAP
1 *595:D 0.000187129
2 *518:Y 0.000187129
3 *595:D *504:B1 5.82121e-05
4 *595:D *507:C 1.87611e-05
5 *595:D *512:A2 3.00073e-05
6 *595:D *595:CLK 2.70271e-05
7 *595:D *51:44 0.000141533
8 *595:D *62:28 0.000158885
9 *12:127 *595:D 8.62625e-06
*RES
1 *518:Y *595:D 32.9771 
*END

*D_NET *32 0.000379415
*CONN
*I *596:D I *D sky130_fd_sc_hd__dfxtp_1
*I *522:Y O *D sky130_fd_sc_hd__nor3_1
*CAP
1 *596:D 0.00013037
2 *522:Y 0.00013037
3 *596:D *519:A 2.95757e-05
4 *596:D *520:B2 0
5 *596:D *71:10 0
6 *596:D *150:10 6.08467e-05
7 *596:D *150:14 2.82537e-05
*RES
1 *522:Y *596:D 30.7642 
*END

*D_NET *33 0.000599369
*CONN
*I *597:D I *D sky130_fd_sc_hd__dfxtp_1
*I *526:Y O *D sky130_fd_sc_hd__a211oi_1
*CAP
1 *597:D 0.000179638
2 *526:Y 0.000179638
3 *597:D *523:B 8.03393e-06
4 *597:D *527:B 8.89094e-05
5 *597:D *527:C 0.000109978
6 *597:D *121:21 3.31733e-05
*RES
1 *526:Y *597:D 32.2887 
*END

*D_NET *34 0.000992154
*CONN
*I *598:D I *D sky130_fd_sc_hd__dfxtp_1
*I *531:Y O *D sky130_fd_sc_hd__nor3_1
*CAP
1 *598:D 0.000236899
2 *531:Y 0.000236899
3 *598:D *531:B 7.50872e-05
4 *598:D *53:101 0.000116186
5 *598:D *152:10 0.000269795
6 *12:221 *598:D 5.72879e-05
*RES
1 *531:Y *598:D 35.7501 
*END

*D_NET *35 0.00193805
*CONN
*I *599:D I *D sky130_fd_sc_hd__dfxtp_1
*I *535:Y O *D sky130_fd_sc_hd__a21oi_1
*CAP
1 *599:D 0.000530755
2 *535:Y 0.000530755
3 *599:D *534:A 0.000288762
4 *599:D *535:A1 0
5 *599:D *535:A2 3.64684e-05
6 *599:D *547:A2 0.000231378
7 *599:D *602:D 0.000279872
8 *599:D *153:8 2.54062e-05
9 *599:D *153:12 4.3116e-06
10 *12:221 *599:D 2.41274e-06
11 *12:230 *599:D 7.92757e-06
*RES
1 *535:Y *599:D 43.6749 
*END

*D_NET *36 0.000507312
*CONN
*I *600:D I *D sky130_fd_sc_hd__dfxtp_1
*I *539:Y O *D sky130_fd_sc_hd__nor3_1
*CAP
1 *600:D 9.41454e-05
2 *539:Y 9.41454e-05
3 *600:D *537:B1 0.000127179
4 *600:D *547:A2 3.18826e-06
5 *600:D *142:37 6.50727e-05
6 *539:A *600:D 0.000123582
*RES
1 *539:Y *600:D 30.7937 
*END

*D_NET *37 0.00071346
*CONN
*I *601:D I *D sky130_fd_sc_hd__dfxtp_1
*I *544:Y O *D sky130_fd_sc_hd__nor3_1
*CAP
1 *601:D 0.000224242
2 *544:Y 0.000224242
3 *601:D *542:A3 2.14894e-05
4 *601:D *542:A4 4.76283e-05
5 *601:D *544:B 7.50872e-05
6 *601:D *136:87 0
7 *601:D *140:12 5.05168e-05
8 *601:D *143:8 7.02539e-05
*RES
1 *544:Y *601:D 33.5317 
*END

*D_NET *38 0.00224298
*CONN
*I *602:D I *D sky130_fd_sc_hd__dfxtp_1
*I *547:Y O *D sky130_fd_sc_hd__a21oi_1
*CAP
1 *602:D 0.000733685
2 *547:Y 0.000733685
3 *602:D *537:A1 7.37672e-05
4 *602:D *538:A1 4.23622e-05
5 *602:D *538:A2 1.66771e-05
6 *602:D *547:A1 0.000211235
7 *602:D *547:A2 3.60268e-05
8 *602:D *142:10 4.38671e-05
9 *602:D *144:8 6.93853e-05
10 *547:B1 *602:D 2.41274e-06
11 *599:D *602:D 0.000279872
*RES
1 *547:Y *602:D 48.382 
*END

*D_NET *39 0.000512874
*CONN
*I *603:D I *D sky130_fd_sc_hd__dfxtp_1
*I *558:Y O *D sky130_fd_sc_hd__nor2_1
*CAP
1 *603:D 0.00020032
2 *558:Y 0.00020032
3 *603:D *550:A 0
4 *603:D *552:D 0
5 *603:D *603:CLK 1.87611e-05
6 *603:D *52:10 0
7 *558:A *603:D 9.34724e-05
8 *12:163 *603:D 0
*RES
1 *558:Y *603:D 32.9771 
*END

*D_NET *40 0.00208346
*CONN
*I *604:D I *D sky130_fd_sc_hd__dfxtp_1
*I *560:Y O *D sky130_fd_sc_hd__a31oi_1
*CAP
1 *604:D 0.000939556
2 *560:Y 0.000939556
3 *604:D *460:A 4.04556e-05
4 *604:D *486:A3 5.07314e-05
5 *604:D *560:A3 9.38345e-06
6 *604:D *137:8 6.08467e-05
7 *604:D *166:23 7.34948e-06
8 *12:32 *604:D 3.55859e-05
9 *12:65 *604:D 0
*RES
1 *560:Y *604:D 44.6537 
*END

*D_NET *41 0.000663038
*CONN
*I *605:D I *D sky130_fd_sc_hd__dfxtp_1
*I *563:Y O *D sky130_fd_sc_hd__nor2_1
*CAP
1 *605:D 0.000331519
2 *563:Y 0.000331519
3 *12:65 *605:D 0
*RES
1 *563:Y *605:D 32.5969 
*END

*D_NET *42 0.000958862
*CONN
*I *606:D I *D sky130_fd_sc_hd__dfxtp_1
*I *565:Y O *D sky130_fd_sc_hd__a21oi_1
*CAP
1 *606:D 0.000406461
2 *565:Y 0.000406461
3 *606:D *137:32 3.28433e-06
4 *606:D *137:41 0.000128457
5 *490:B1 *606:D 0
6 *12:52 *606:D 1.41976e-05
7 *12:65 *606:D 0
*RES
1 *565:Y *606:D 38.4104 
*END

*D_NET *43 0.000541538
*CONN
*I *607:D I *D sky130_fd_sc_hd__dfxtp_1
*I *569:Y O *D sky130_fd_sc_hd__nor2_1
*CAP
1 *607:D 0.000189245
2 *569:Y 0.000189245
3 *607:D *569:B 5.62418e-05
4 *607:D *576:B 2.27595e-05
5 *607:D *576:C 5.41186e-05
6 *12:321 *607:D 2.99287e-05
*RES
1 *569:Y *607:D 32.1433 
*END

*D_NET *44 0.000788771
*CONN
*I *608:D I *D sky130_fd_sc_hd__dfxtp_1
*I *572:Y O *D sky130_fd_sc_hd__nor2_1
*CAP
1 *608:D 0.000253038
2 *572:Y 0.000253038
3 *608:D *572:B 7.14746e-05
4 *608:D *107:26 0.000148144
5 *608:D *136:65 5.70115e-06
6 *608:D *155:46 2.65017e-05
7 *12:312 *608:D 3.08745e-05
*RES
1 *572:Y *608:D 33.7005 
*END

*D_NET *45 0.000219585
*CONN
*I *609:D I *D sky130_fd_sc_hd__dfxtp_1
*I *576:Y O *D sky130_fd_sc_hd__nor3_1
*CAP
1 *609:D 0.000100412
2 *576:Y 0.000100412
3 *609:D *156:8 1.87611e-05
*RES
1 *576:Y *609:D 29.655 
*END

*D_NET *46 0.000929296
*CONN
*I *610:D I *D sky130_fd_sc_hd__dfxtp_1
*I *579:Y O *D sky130_fd_sc_hd__a21oi_1
*CAP
1 *610:D 0.000383579
2 *579:Y 0.000383579
3 *610:D *571:B2 0
4 *610:D *578:D 0
5 *610:D *108:27 0
6 *610:D *157:10 0.000162139
7 *610:D *169:30 0
*RES
1 *579:Y *610:D 37.6954 
*END

*D_NET *47 0.00189398
*CONN
*I *488:C1 I *D sky130_fd_sc_hd__a221o_1
*I *487:Y O *D sky130_fd_sc_hd__nand2_1
*CAP
1 *488:C1 0.000612007
2 *487:Y 0.000612007
3 *488:C1 *467:B 1.07248e-05
4 *488:C1 *468:B 0.000122098
5 *488:C1 *481:A 8.20492e-06
6 *488:C1 *487:A 8.97566e-06
7 *488:C1 *124:8 0.000151726
8 *488:C1 *137:18 0.000179149
9 *488:B2 *488:C1 0.000107601
10 *12:32 *488:C1 8.14875e-05
*RES
1 *487:Y *488:C1 40.5479 
*END

*D_NET *48 0.000454538
*CONN
*I *490:A2 I *D sky130_fd_sc_hd__a21oi_1
*I *489:Y O *D sky130_fd_sc_hd__o21ai_0
*CAP
1 *490:A2 5.50058e-05
2 *489:Y 5.50058e-05
3 *490:A2 *489:A2 0.000122378
4 *490:A2 *490:A1 0.000222149
*RES
1 *489:Y *490:A2 21.5659 
*END

*D_NET *49 0.00198831
*CONN
*I *492:B I *D sky130_fd_sc_hd__nor2_1
*I *493:C I *D sky130_fd_sc_hd__nor3_1
*I *562:A3 I *D sky130_fd_sc_hd__a31oi_1
*I *491:X O *D sky130_fd_sc_hd__lpflow_isobufsrc_1
*CAP
1 *492:B 9.69663e-05
2 *493:C 0
3 *562:A3 0.000216561
4 *491:X 0
5 *49:21 0.000371146
6 *49:4 0.00049074
7 *492:B *493:B 0.00018468
8 *562:A3 *491:A 2.65667e-05
9 *562:A3 *491:SLEEP 6.36477e-05
10 *562:A3 *562:A1 2.16355e-05
11 *562:A3 *563:B 0.000158357
12 *562:A3 *166:121 1.88152e-05
13 *562:A3 *167:6 1.59527e-05
14 *562:A3 *167:76 6.12686e-06
15 *562:A3 *168:91 6.50727e-05
16 *49:21 *466:A 0.000144546
17 *49:21 *561:A2 0.000107496
18 *49:21 *562:B1 0
*RES
1 *491:X *49:4 9.3 
2 *49:4 *562:A3 15.0389 
3 *49:4 *49:21 15.7135 
4 *49:21 *493:C 9.3 
5 *49:21 *492:B 12.8446 
*END

*D_NET *50 0.00129051
*CONN
*I *554:A1 I *D sky130_fd_sc_hd__o21ai_0
*I *492:Y O *D sky130_fd_sc_hd__nor2_1
*CAP
1 *554:A1 0.000404463
2 *492:Y 0.000404463
3 *554:A1 *493:B 0.000122378
4 *554:A1 *549:D_N 0
5 *554:A1 *550:C 0.000148159
6 *554:A1 *550:D 0.000172706
7 *554:A1 *552:B 0
8 *554:A1 *553:A 0
9 *554:A1 *123:10 0
10 *554:A1 *130:38 3.83429e-05
*RES
1 *492:Y *554:A1 36.6657 
*END

*D_NET *51 0.0200231
*CONN
*I *495:SLEEP I *D sky130_fd_sc_hd__lpflow_inputiso1p_1
*I *532:A1 I *D sky130_fd_sc_hd__o21ai_0
*I *530:A I *D sky130_fd_sc_hd__nor2_1
*I *525:A2 I *D sky130_fd_sc_hd__a21oi_1
*I *494:B I *D sky130_fd_sc_hd__nor2_1
*I *545:A1 I *D sky130_fd_sc_hd__o21ai_0
*I *537:A2 I *D sky130_fd_sc_hd__a21oi_1
*I *543:A I *D sky130_fd_sc_hd__nor2_1
*I *557:B1 I *D sky130_fd_sc_hd__a32oi_1
*I *520:A2 I *D sky130_fd_sc_hd__a22oi_1
*I *508:B1 I *D sky130_fd_sc_hd__a2bb2oi_1
*I *516:A2 I *D sky130_fd_sc_hd__a21oi_1
*I *512:A2 I *D sky130_fd_sc_hd__a21oi_1
*I *504:A2 I *D sky130_fd_sc_hd__a21oi_1
*I *499:B I *D sky130_fd_sc_hd__nand2_1
*I *497:A2 I *D sky130_fd_sc_hd__a21oi_1
*I *493:Y O *D sky130_fd_sc_hd__nor3_1
*CAP
1 *495:SLEEP 0
2 *532:A1 0.000357523
3 *530:A 1.39384e-05
4 *525:A2 2.18332e-05
5 *494:B 6.51288e-05
6 *545:A1 0
7 *537:A2 0.000375156
8 *543:A 2.18282e-05
9 *557:B1 0.000388766
10 *520:A2 0
11 *508:B1 2.98576e-05
12 *516:A2 7.27254e-05
13 *512:A2 0.000384965
14 *504:A2 0
15 *499:B 6.795e-05
16 *497:A2 0.000137324
17 *493:Y 0.000356796
18 *51:187 0.000796407
19 *51:174 0.00056173
20 *51:139 0.000456745
21 *51:130 0.000295471
22 *51:113 0.000701565
23 *51:111 0.000506355
24 *51:109 0.000681243
25 *51:98 0.000828221
26 *51:81 0.00114055
27 *51:68 0.000707328
28 *51:53 0.000641017
29 *51:44 0.000329018
30 *51:29 0.000502813
31 *51:14 0.000482588
32 *51:12 0.000446477
33 *494:B *494:A 0.000171273
34 *494:B *542:A3 1.92336e-05
35 *497:A2 *495:A 0
36 *497:A2 *497:A1 3.51034e-05
37 *497:A2 *501:A1 0.000111708
38 *497:A2 *53:10 2.18145e-05
39 *499:B *502:A1 7.92757e-06
40 *499:B *62:49 6.23875e-05
41 *499:B *145:50 6.50727e-05
42 *499:B *145:54 2.40235e-05
43 *508:B1 *593:CLK 1.64789e-05
44 *512:A2 *504:B1 0
45 *512:A2 *512:A1 5.04829e-06
46 *512:A2 *517:B1 9.04224e-05
47 *512:A2 *518:C 0.000273277
48 *512:A2 *519:B 4.3116e-06
49 *512:A2 *136:45 0
50 *512:A2 *148:90 0
51 *512:A2 *148:99 0.000153932
52 *512:A2 *149:71 9.34224e-05
53 *516:A2 *516:B1 4.70005e-05
54 *516:A2 *136:45 0
55 *525:A2 *556:A 0
56 *530:A *530:B 2.57986e-05
57 *530:A *53:127 6.3657e-05
58 *532:A1 *77:10 0.000125611
59 *532:A1 *77:12 3.38492e-05
60 *532:A1 *77:18 2.81678e-06
61 *537:A2 *537:A1 6.92705e-05
62 *537:A2 *539:B 7.27341e-05
63 *537:A2 *545:A2 9.14387e-06
64 *537:A2 *575:A2 5.0715e-05
65 *537:A2 *575:B1 0.000114594
66 *537:A2 *576:C 1.8523e-05
67 *537:A2 *136:87 5.6039e-06
68 *537:A2 *143:51 0.000196866
69 *557:B1 *101:14 0
70 *557:B1 *169:12 2.13165e-05
71 *557:B1 *169:22 0.00072754
72 *51:12 *466:C_N 0.000116971
73 *51:12 *548:A 0
74 *51:12 *553:A 5.59443e-05
75 *51:12 *53:6 4.82966e-05
76 *51:12 *53:10 7.34948e-06
77 *51:12 *123:10 1.79672e-05
78 *51:12 *136:45 5.29898e-05
79 *51:14 *495:A 2.57986e-05
80 *51:14 *53:10 0.000144921
81 *51:29 *501:B1 0.000125695
82 *51:29 *515:A2 3.87866e-05
83 *51:29 *515:A3 1.44467e-05
84 *51:29 *53:62 0
85 *51:29 *136:45 0
86 *51:29 *145:24 3.20069e-06
87 *51:29 *145:35 5.9387e-05
88 *51:29 *145:46 4.70005e-05
89 *51:29 *145:83 1.09738e-05
90 *51:44 *503:A2 3.88655e-05
91 *51:44 *504:B1 8.62625e-06
92 *51:44 *515:A3 2.36813e-05
93 *51:44 *62:28 6.74467e-05
94 *51:44 *145:83 0.000102374
95 *51:53 *139:20 0.000171391
96 *51:53 *139:28 1.4946e-05
97 *51:68 *139:16 0.000116014
98 *51:68 *139:20 4.88955e-05
99 *51:81 *593:CLK 2.42138e-05
100 *51:81 *139:16 0.000700599
101 *51:98 *520:A1 1.07248e-05
102 *51:98 *520:B1 4.98252e-05
103 *51:98 *556:C 7.09148e-05
104 *51:98 *593:CLK 7.92757e-06
105 *51:98 *597:CLK 0
106 *51:98 *71:25 1.18841e-05
107 *51:98 *147:6 9.988e-06
108 *51:109 *523:B 1.94574e-05
109 *51:109 *526:B1 9.68902e-05
110 *51:109 *597:CLK 3.75126e-05
111 *51:109 *71:25 0.000246681
112 *51:109 *71:34 6.50586e-05
113 *51:111 *523:B 0.000114044
114 *51:111 *597:CLK 6.43304e-05
115 *51:111 *603:CLK 5.93657e-05
116 *51:111 *101:14 0
117 *51:111 *140:12 0
118 *51:111 *169:10 9.60366e-05
119 *51:113 *101:14 0
120 *51:113 *169:10 2.09495e-05
121 *51:113 *169:12 0.000191541
122 *51:130 *542:A3 0.000113968
123 *51:130 *542:A4 5.2472e-05
124 *51:130 *542:B1 0.000162677
125 *51:130 *544:C 2.65667e-05
126 *51:130 *555:B 6.39306e-05
127 *51:130 *142:72 0.000508686
128 *51:130 *153:99 4.33655e-05
129 *51:139 *542:A4 2.18145e-05
130 *51:139 *545:A2 0.000113968
131 *51:174 *526:B1 6.61019e-05
132 *51:174 *556:A 0.000164333
133 *51:187 *531:B 0.000157849
134 *51:187 *536:A1 0.000218017
135 *51:187 *556:A 1.92172e-05
136 *51:187 *77:18 2.71045e-05
137 *51:187 *77:24 0.000114594
138 *51:187 *151:12 4.41269e-05
139 *51:187 *153:24 0.000113109
140 *544:A *494:B 0.000266832
141 *593:D *51:98 9.68069e-06
142 *595:D *512:A2 3.00073e-05
143 *595:D *51:44 0.000141533
144 *12:127 *512:A2 1.18938e-05
145 *12:196 *51:98 5.79795e-06
146 *12:196 *51:109 0.000153788
147 *12:221 *51:187 0
*RES
1 *493:Y *51:12 27.9203 
2 *51:12 *51:14 3.49641 
3 *51:14 *497:A2 13.3992 
4 *51:14 *51:29 11.7303 
5 *51:29 *499:B 16.2113 
6 *51:29 *51:44 10.8998 
7 *51:44 *504:A2 9.3 
8 *51:44 *51:53 3.23117 
9 *51:53 *512:A2 31.6576 
10 *51:53 *51:68 1.8326 
11 *51:68 *516:A2 20.9625 
12 *51:68 *51:81 9.04245 
13 *51:81 *508:B1 10.2886 
14 *51:81 *51:98 18.8723 
15 *51:98 *520:A2 9.3 
16 *51:98 *51:109 14.6 
17 *51:109 *51:111 9.72179 
18 *51:111 *51:113 3.90826 
19 *51:113 *557:B1 25.3841 
20 *51:113 *51:130 12.9878 
21 *51:130 *543:A 9.87872 
22 *51:130 *51:139 2.38721 
23 *51:139 *537:A2 28.7805 
24 *51:139 *545:A1 9.3 
25 *51:111 *494:B 17.3205 
26 *51:109 *51:174 8.55102 
27 *51:174 *525:A2 9.87872 
28 *51:174 *51:187 17.0355 
29 *51:187 *530:A 14.5234 
30 *51:187 *532:A1 22.587 
31 *51:12 *495:SLEEP 9.3 
*END

*D_NET *52 0.00537596
*CONN
*I *542:A3 I *D sky130_fd_sc_hd__a41oi_1
*I *529:A1 I *D sky130_fd_sc_hd__a21oi_1
*I *520:B1 I *D sky130_fd_sc_hd__a22oi_1
*I *494:Y O *D sky130_fd_sc_hd__nor2_1
*CAP
1 *542:A3 0.000362357
2 *529:A1 0.000568823
3 *520:B1 0.000403658
4 *494:Y 0.000678957
5 *52:10 0.00128908
6 *520:B1 *520:A1 1.07248e-05
7 *520:B1 *520:B2 5.22654e-06
8 *520:B1 *53:93 0.00014257
9 *520:B1 *150:20 0
10 *529:A1 *463:A 1.58706e-05
11 *529:A1 *524:B 2.94067e-05
12 *529:A1 *53:93 0.000113238
13 *529:A1 *74:10 1.07248e-05
14 *542:A3 *494:A 0.000217923
15 *542:A3 *542:A1 4.79289e-05
16 *542:A3 *544:B 0.000101133
17 *542:A3 *544:C 0.000118166
18 *542:A3 *555:B 6.50727e-05
19 *542:A3 *140:12 0
20 *542:A3 *142:57 9.25219e-05
21 *542:A3 *153:99 9.11837e-05
22 *52:10 *101:14 0.000670332
23 *494:B *542:A3 1.92336e-05
24 *544:A *542:A3 7.13234e-05
25 *558:A *52:10 6.52187e-05
26 *601:D *542:A3 2.14894e-05
27 *603:D *52:10 0
28 *12:148 *520:B1 0
29 *12:163 *52:10 0
30 *51:98 *520:B1 4.98252e-05
31 *51:130 *542:A3 0.000113968
*RES
1 *494:Y *52:10 28.8004 
2 *52:10 *520:B1 21.2337 
3 *52:10 *529:A1 19.2011 
4 *494:Y *542:A3 39.7496 
*END

*D_NET *53 0.0159632
*CONN
*I *508:A2_N I *D sky130_fd_sc_hd__a2bb2oi_1
*I *524:A I *D sky130_fd_sc_hd__nor2_1
*I *533:B I *D sky130_fd_sc_hd__nor2_1
*I *536:B1 I *D sky130_fd_sc_hd__a31oi_1
*I *528:A I *D sky130_fd_sc_hd__nor2_1
*I *546:B I *D sky130_fd_sc_hd__or3_1
*I *541:B1 I *D sky130_fd_sc_hd__a41oi_1
*I *515:B1 I *D sky130_fd_sc_hd__a31oi_1
*I *503:B1 I *D sky130_fd_sc_hd__a31oi_1
*I *511:B1 I *D sky130_fd_sc_hd__a21oi_1
*I *500:B1 I *D sky130_fd_sc_hd__a21oi_1
*I *496:B I *D sky130_fd_sc_hd__nor2_1
*I *495:X O *D sky130_fd_sc_hd__lpflow_inputiso1p_1
*CAP
1 *508:A2_N 4.85058e-05
2 *524:A 0
3 *533:B 0
4 *536:B1 7.68171e-05
5 *528:A 0
6 *546:B 0.000160286
7 *541:B1 0.000196947
8 *515:B1 1.09219e-05
9 *503:B1 0.00029793
10 *511:B1 1.81917e-05
11 *500:B1 0.00012667
12 *496:B 0.000201587
13 *495:X 4.12095e-05
14 *53:134 9.5758e-05
15 *53:127 0.00034116
16 *53:101 0.000616832
17 *53:97 0.000707615
18 *53:93 0.00148565
19 *53:77 0.00170369
20 *53:62 0.000558859
21 *53:36 0.000672302
22 *53:21 0.00054138
23 *53:10 0.000484079
24 *53:6 0.000517773
25 *496:B *496:A 8.63056e-05
26 *496:B *497:B1 7.41058e-05
27 *496:B *141:50 4.3116e-06
28 *496:B *141:52 5.00082e-05
29 *500:B1 *141:6 1.65872e-05
30 *500:B1 *141:12 0.000111722
31 *503:B1 *503:A3 1.32509e-05
32 *503:B1 *504:B1 7.65229e-05
33 *503:B1 *511:A1 6.08467e-05
34 *503:B1 *511:A2 7.92757e-06
35 *503:B1 *513:A 1.41853e-05
36 *503:B1 *518:C 7.35836e-05
37 *508:A2_N *593:CLK 2.91559e-06
38 *508:A2_N *62:18 5.08751e-05
39 *508:A2_N *62:28 6.08467e-05
40 *508:A2_N *139:16 1.41291e-05
41 *508:A2_N *146:47 0.000152878
42 *511:B1 *513:A 1.09551e-05
43 *511:B1 *514:C 0
44 *511:B1 *518:C 0
45 *515:B1 *515:A1 6.36477e-05
46 *515:B1 *145:54 6.36477e-05
47 *536:B1 *535:A1 0.000226267
48 *536:B1 *599:CLK 9.98129e-05
49 *541:B1 *523:A 0
50 *541:B1 *536:A1 0
51 *541:B1 *544:C 8.62625e-06
52 *541:B1 *546:C 0
53 *541:B1 *74:10 2.22342e-05
54 *541:B1 *136:87 7.37511e-05
55 *541:B1 *140:12 0
56 *541:B1 *153:99 0.000118166
57 *546:B *140:69 0.000277502
58 *53:10 *497:A1 0.000167076
59 *53:10 *501:A1 1.65872e-05
60 *53:10 *502:A2 0.000111708
61 *53:21 *502:A2 6.80864e-05
62 *53:21 *141:50 5.68225e-06
63 *53:36 *502:A2 8.07939e-05
64 *53:36 *503:A1 0.000301385
65 *53:36 *505:B1 0.000101118
66 *53:36 *512:B1 0.000101148
67 *53:36 *513:A 2.16355e-05
68 *53:36 *62:49 0.000118511
69 *53:36 *141:96 2.31017e-05
70 *53:62 *515:A2 3.68867e-05
71 *53:62 *136:45 0
72 *53:77 *515:A3 0
73 *53:77 *516:B1 0.000121106
74 *53:77 *595:CLK 4.74809e-05
75 *53:77 *62:28 0.000466387
76 *53:77 *136:45 0
77 *53:77 *146:47 0.000470599
78 *53:93 *524:B 7.12404e-05
79 *53:93 *121:21 4.40531e-05
80 *53:93 *148:16 8.93503e-05
81 *53:93 *148:24 0.00019244
82 *53:93 *149:45 7.91408e-05
83 *53:97 *524:B 0.000218531
84 *53:97 *527:A 1.43983e-05
85 *53:101 *531:B 7.58217e-06
86 *53:101 *536:A1 0
87 *53:101 *74:10 0.000103445
88 *53:101 *151:12 0.000238552
89 *53:127 *524:B 0
90 *53:127 *530:B 2.16482e-05
91 *53:127 *531:C 0.000255683
92 *53:127 *532:A2 6.50727e-05
93 *53:127 *534:B 0
94 *53:127 *153:24 1.35473e-05
95 *53:134 *532:A2 1.92172e-05
96 *53:134 *153:24 1.43848e-05
97 *497:A2 *53:10 2.18145e-05
98 *520:B1 *53:93 0.00014257
99 *529:A1 *53:93 0.000113238
100 *530:A *53:127 6.3657e-05
101 *591:D *496:B 0.000205332
102 *591:D *53:21 0.000172144
103 *591:D *53:36 0.000219154
104 *598:D *53:101 0.000116186
105 *12:65 *496:B 0
106 *12:74 *496:B 0
107 *12:93 *53:36 6.14273e-05
108 *12:104 *53:36 0.000108364
109 *12:127 *503:B1 9.80242e-07
110 *12:213 *53:93 1.71784e-05
111 *12:213 *53:97 3.31745e-05
112 *12:213 *53:127 4.00156e-05
113 *12:221 *53:101 0
114 *51:12 *53:6 4.82966e-05
115 *51:12 *53:10 7.34948e-06
116 *51:14 *53:10 0.000144921
117 *51:29 *53:62 0
*RES
1 *495:X *53:6 10.578 
2 *53:6 *53:10 11.324 
3 *53:10 *496:B 21.4455 
4 *53:10 *53:21 3.07775 
5 *53:21 *500:B1 16.7418 
6 *53:21 *53:36 19.513 
7 *53:36 *511:B1 9.87872 
8 *53:36 *503:B1 24.2125 
9 *53:6 *53:62 10.4845 
10 *53:62 *515:B1 14.5234 
11 *53:62 *53:77 16.06 
12 *53:77 *53:93 23.9179 
13 *53:93 *53:97 4.07513 
14 *53:97 *53:101 13.3913 
15 *53:101 *541:B1 19.4015 
16 *53:101 *546:B 16.7418 
17 *53:97 *53:127 9.5006 
18 *53:127 *528:A 9.3 
19 *53:127 *53:134 0.723396 
20 *53:134 *536:B1 22.2083 
21 *53:134 *533:B 9.3 
22 *53:93 *524:A 9.3 
23 *53:77 *508:A2_N 11.7113 
*END

*D_NET *54 0.000739671
*CONN
*I *497:B1 I *D sky130_fd_sc_hd__a21oi_1
*I *496:Y O *D sky130_fd_sc_hd__nor2_1
*CAP
1 *497:B1 0.000200239
2 *496:Y 0.000200239
3 *496:B *497:B1 7.41058e-05
4 *591:D *497:B1 0.000127194
5 *12:74 *497:B1 0.000137892
*RES
1 *496:Y *497:B1 34.032 
*END

*D_NET *55 0.000367081
*CONN
*I *498:B I *D sky130_fd_sc_hd__nor2_1
*I *497:Y O *D sky130_fd_sc_hd__a21oi_1
*CAP
1 *498:B 0.000170257
2 *497:Y 0.000170257
3 *498:B *497:A1 0
4 *498:A *498:B 2.65667e-05
*RES
1 *497:Y *498:B 22.5305 
*END

*D_NET *56 0.000288804
*CONN
*I *502:A1 I *D sky130_fd_sc_hd__a21oi_1
*I *499:Y O *D sky130_fd_sc_hd__nand2_1
*CAP
1 *502:A1 0.000137209
2 *499:Y 0.000137209
3 *502:A1 *62:49 1.4091e-06
4 *502:A1 *145:50 5.04829e-06
5 *499:B *502:A1 7.92757e-06
*RES
1 *499:Y *502:A1 20.4326 
*END

*D_NET *57 0.00033314
*CONN
*I *501:B1 I *D sky130_fd_sc_hd__o21ai_0
*I *500:Y O *D sky130_fd_sc_hd__a21oi_1
*CAP
1 *501:B1 4.34306e-05
2 *500:Y 4.34306e-05
3 *501:B1 *145:35 0.000120584
4 *51:29 *501:B1 0.000125695
*RES
1 *500:Y *501:B1 29.8472 
*END

*D_NET *58 0.000961633
*CONN
*I *502:A2 I *D sky130_fd_sc_hd__a21oi_1
*I *501:Y O *D sky130_fd_sc_hd__o21ai_0
*CAP
1 *502:A2 0.000195475
2 *501:Y 0.000195475
3 *502:A2 *141:50 0.000196638
4 *502:A2 *141:96 0.000113456
5 *53:10 *502:A2 0.000111708
6 *53:21 *502:A2 6.80864e-05
7 *53:36 *502:A2 8.07939e-05
*RES
1 *501:Y *502:A2 34.4473 
*END

*D_NET *59 0.00114013
*CONN
*I *504:B1 I *D sky130_fd_sc_hd__a21oi_1
*I *503:Y O *D sky130_fd_sc_hd__a31oi_1
*CAP
1 *504:B1 0.000240407
2 *503:Y 0.000240407
3 *504:B1 *503:A1 1.41976e-05
4 *504:B1 *503:A2 0.000328392
5 *504:B1 *506:B 2.41274e-06
6 *504:B1 *139:28 0.000111722
7 *503:B1 *504:B1 7.65229e-05
8 *512:A2 *504:B1 0
9 *595:D *504:B1 5.82121e-05
10 *12:127 *504:B1 5.92342e-05
11 *51:44 *504:B1 8.62625e-06
*RES
1 *503:Y *504:B1 35.5859 
*END

*D_NET *60 0.00115374
*CONN
*I *506:B I *D sky130_fd_sc_hd__nor3_1
*I *504:Y O *D sky130_fd_sc_hd__a21oi_1
*CAP
1 *506:B 0.00042051
2 *504:Y 0.00042051
3 *506:B *506:C 3.14978e-05
4 *506:B *594:CLK 0
5 *506:B *139:28 3.00613e-05
6 *506:B *139:32 0
7 *504:B1 *506:B 2.41274e-06
8 *592:D *506:B 0
9 *12:104 *506:B 0.000248745
*RES
1 *504:Y *506:B 36.1433 
*END

*D_NET *61 0.000313792
*CONN
*I *506:C I *D sky130_fd_sc_hd__nor3_1
*I *505:Y O *D sky130_fd_sc_hd__a21oi_1
*CAP
1 *506:C 0.000139611
2 *505:Y 0.000139611
3 *506:B *506:C 3.14978e-05
4 *592:D *506:C 3.072e-06
*RES
1 *505:Y *506:C 21.9758 
*END

*D_NET *62 0.00803182
*CONN
*I *519:D I *D sky130_fd_sc_hd__nand4_1
*I *517:A2 I *D sky130_fd_sc_hd__a21oi_1
*I *521:A3 I *D sky130_fd_sc_hd__a31oi_1
*I *508:A1_N I *D sky130_fd_sc_hd__a2bb2oi_1
*I *511:A2 I *D sky130_fd_sc_hd__a21oi_1
*I *513:B I *D sky130_fd_sc_hd__nor2_1
*I *515:A3 I *D sky130_fd_sc_hd__a31oi_1
*I *507:X O *D sky130_fd_sc_hd__and4_1
*CAP
1 *519:D 2.9545e-05
2 *517:A2 0.000178976
3 *521:A3 0
4 *508:A1_N 0
5 *511:A2 5.29899e-05
6 *513:B 7.87135e-05
7 *515:A3 6.07967e-05
8 *507:X 0.000193641
9 *62:85 0.000458337
10 *62:74 0.000383328
11 *62:49 0.000545817
12 *62:28 0.000817258
13 *62:18 0.000444668
14 *62:12 0.000429474
15 *511:A2 *511:A1 1.65872e-05
16 *511:A2 *513:A 1.85136e-05
17 *511:A2 *516:B1 0
18 *511:A2 *518:B 4.80635e-06
19 *511:A2 *518:C 2.53145e-06
20 *513:B *512:B1 0.000107496
21 *513:B *513:A 0.000107496
22 *513:B *514:C 2.65667e-05
23 *515:A3 *145:54 6.92705e-05
24 *517:A2 *517:B1 6.50586e-05
25 *517:A2 *519:C 0.000749011
26 *519:D *519:C 0.00011818
27 *62:12 *556:C 2.65667e-05
28 *62:12 *147:10 7.50722e-05
29 *62:12 *150:20 0.000118485
30 *62:18 *139:16 2.65831e-05
31 *62:28 *595:CLK 7.52542e-05
32 *62:28 *616:A 6.50727e-05
33 *62:28 *139:16 0.00025084
34 *62:28 *139:20 0.000124312
35 *62:28 *139:28 3.01683e-06
36 *62:28 *146:47 4.72235e-05
37 *62:49 *503:A1 0.000233425
38 *62:49 *503:A3 0.000339769
39 *62:49 *141:96 0.000149628
40 *62:49 *145:54 4.91225e-06
41 *62:74 *139:14 0.000156578
42 *62:74 *148:24 4.69571e-05
43 *62:74 *150:20 0
44 *62:85 *519:A 0
45 *62:85 *136:45 0
46 *62:85 *139:14 0.000203833
47 *62:85 *148:24 3.3239e-06
48 *62:85 *149:60 0
49 *499:B *62:49 6.23875e-05
50 *502:A1 *62:49 1.4091e-06
51 *503:B1 *511:A2 7.92757e-06
52 *508:A2_N *62:18 5.08751e-05
53 *508:A2_N *62:28 6.08467e-05
54 *514:A *513:B 2.51527e-05
55 *595:D *62:28 0.000158885
56 *12:127 *511:A2 3.31745e-05
57 *12:127 *513:B 3.07726e-05
58 *51:29 *515:A3 1.44467e-05
59 *51:44 *515:A3 2.36813e-05
60 *51:44 *62:28 6.74467e-05
61 *53:36 *62:49 0.000118511
62 *53:77 *515:A3 0
63 *53:77 *62:28 0.000466387
*RES
1 *507:X *62:12 18.6271 
2 *62:12 *62:18 6.51801 
3 *62:18 *62:28 19.1653 
4 *62:28 *515:A3 15.9401 
5 *62:28 *62:49 25.8877 
6 *62:49 *513:B 12.2659 
7 *62:49 *511:A2 11.1567 
8 *62:18 *508:A1_N 9.3 
9 *62:12 *62:74 3.90826 
10 *62:74 *521:A3 13.8 
11 *62:74 *62:85 11.315 
12 *62:85 *517:A2 17.2332 
13 *62:85 *519:D 10.578 
*END

*D_NET *63 0.000975137
*CONN
*I *510:B I *D sky130_fd_sc_hd__nor3_1
*I *508:Y O *D sky130_fd_sc_hd__a2bb2oi_1
*CAP
1 *510:B 0.000188039
2 *508:Y 0.000188039
3 *510:B *509:A1 0.000174175
4 *510:B *509:B1 9.75356e-05
5 *510:B *510:C 3.25584e-05
6 *510:B *146:47 0.000113374
7 *510:B *147:10 0.000181416
*RES
1 *508:Y *510:B 34.5866 
*END

*D_NET *64 0.0001968
*CONN
*I *510:C I *D sky130_fd_sc_hd__nor3_1
*I *509:Y O *D sky130_fd_sc_hd__a31oi_1
*CAP
1 *510:C 8.2121e-05
2 *509:Y 8.2121e-05
3 *510:B *510:C 3.25584e-05
*RES
1 *509:Y *510:C 21.0354 
*END

*D_NET *65 0.000997741
*CONN
*I *512:B1 I *D sky130_fd_sc_hd__a21oi_1
*I *511:Y O *D sky130_fd_sc_hd__a21oi_1
*CAP
1 *512:B1 0.000276194
2 *511:Y 0.000276194
3 *512:B1 *503:A1 4.09467e-05
4 *512:B1 *514:B 0
5 *512:B1 *148:90 7.54281e-05
6 *513:B *512:B1 0.000107496
7 *12:104 *512:B1 8.62625e-06
8 *12:127 *512:B1 0.000111708
9 *53:36 *512:B1 0.000101148
*RES
1 *511:Y *512:B1 36.5235 
*END

*D_NET *66 0.00088571
*CONN
*I *514:B I *D sky130_fd_sc_hd__nor3_1
*I *512:Y O *D sky130_fd_sc_hd__a21oi_1
*CAP
1 *514:B 0.000392289
2 *512:Y 0.000392289
3 *514:B *594:CLK 0
4 *512:B1 *514:B 0
5 *594:D *514:B 0.000101133
*RES
1 *512:Y *514:B 35.5565 
*END

*D_NET *67 0.000337893
*CONN
*I *514:C I *D sky130_fd_sc_hd__nor3_1
*I *513:Y O *D sky130_fd_sc_hd__nor2_1
*CAP
1 *514:C 0.000149677
2 *513:Y 0.000149677
3 *511:B1 *514:C 0
4 *513:B *514:C 2.65667e-05
5 *514:A *514:C 1.19721e-05
*RES
1 *513:Y *514:C 22.1205 
*END

*D_NET *68 0.00169947
*CONN
*I *516:B1 I *D sky130_fd_sc_hd__a21oi_1
*I *515:Y O *D sky130_fd_sc_hd__a31oi_1
*CAP
1 *516:B1 0.00049184
2 *515:Y 0.00049184
3 *516:B1 *515:A1 7.14678e-05
4 *516:B1 *516:A1 1.69262e-05
5 *516:B1 *136:45 0.000200933
6 *516:B1 *149:60 2.20702e-05
7 *511:A2 *516:B1 0
8 *516:A2 *516:B1 4.70005e-05
9 *12:142 *516:B1 0.000236291
10 *53:77 *516:B1 0.000121106
*RES
1 *515:Y *516:B1 42.0132 
*END

*D_NET *69 0.000377028
*CONN
*I *518:B I *D sky130_fd_sc_hd__nor3_1
*I *516:Y O *D sky130_fd_sc_hd__a21oi_1
*CAP
1 *518:B 0.000120266
2 *516:Y 0.000120266
3 *518:B *518:C 1.92336e-05
4 *511:A2 *518:B 4.80635e-06
5 *12:127 *518:B 8.34681e-05
6 *12:142 *518:B 2.89877e-05
*RES
1 *516:Y *518:B 21.7588 
*END

*D_NET *70 0.0008978
*CONN
*I *518:C I *D sky130_fd_sc_hd__nor3_1
*I *517:Y O *D sky130_fd_sc_hd__a21oi_1
*CAP
1 *518:C 0.000243327
2 *517:Y 0.000243327
3 *518:C *148:90 0
4 *503:B1 *518:C 7.35836e-05
5 *511:A2 *518:C 2.53145e-06
6 *511:B1 *518:C 0
7 *512:A2 *518:C 0.000273277
8 *518:B *518:C 1.92336e-05
9 *12:127 *518:C 3.82198e-05
10 *12:142 *518:C 4.30017e-06
*RES
1 *517:Y *518:C 35.3288 
*END

*D_NET *71 0.00491093
*CONN
*I *527:C I *D sky130_fd_sc_hd__nor3_1
*I *523:B I *D sky130_fd_sc_hd__nor2_1
*I *526:A2 I *D sky130_fd_sc_hd__a211oi_1
*I *520:B2 I *D sky130_fd_sc_hd__a22oi_1
*I *519:Y O *D sky130_fd_sc_hd__nand4_1
*CAP
1 *527:C 0.000299831
2 *523:B 0.000422072
3 *526:A2 0
4 *520:B2 3.27621e-05
5 *519:Y 0.000442286
6 *71:34 0.000778408
7 *71:25 0.000593503
8 *71:10 0.00101205
9 *520:B2 *520:A1 1.45944e-05
10 *520:B2 *150:14 0
11 *520:B2 *150:20 0
12 *523:B *464:A 6.96846e-05
13 *523:B *523:A 7.73653e-05
14 *523:B *525:B1 0.000120114
15 *523:B *526:B1 3.24554e-05
16 *523:B *597:CLK 0
17 *523:B *121:21 4.16253e-05
18 *523:B *140:12 5.97523e-05
19 *523:B *169:10 6.98337e-06
20 *527:C *527:A 0
21 *527:C *527:B 7.95228e-05
22 *527:C *597:CLK 0
23 *71:10 *519:A 2.65831e-05
24 *71:10 *520:A1 1.47102e-05
25 *71:25 *522:B 3.072e-06
26 *71:25 *524:B 0
27 *71:34 *526:A1 0.000169107
28 *71:34 *526:B1 1.41307e-05
29 *520:B1 *520:B2 5.22654e-06
30 *596:D *520:B2 0
31 *596:D *71:10 0
32 *597:D *523:B 8.03393e-06
33 *597:D *527:C 0.000109978
34 *12:196 *71:25 1.04187e-05
35 *12:196 *71:34 7.12286e-06
36 *12:213 *71:34 2.41274e-06
37 *51:98 *71:25 1.18841e-05
38 *51:109 *523:B 1.94574e-05
39 *51:109 *71:25 0.000246681
40 *51:109 *71:34 6.50586e-05
41 *51:111 *523:B 0.000114044
*RES
1 *519:Y *71:10 22.0352 
2 *71:10 *520:B2 14.8015 
3 *71:10 *71:25 13.5666 
4 *71:25 *526:A2 9.3 
5 *71:25 *71:34 6.88721 
6 *71:34 *523:B 25.4909 
7 *71:34 *527:C 21.4778 
*END

*D_NET *72 0.000412647
*CONN
*I *522:B I *D sky130_fd_sc_hd__nor3_1
*I *520:Y O *D sky130_fd_sc_hd__a22oi_1
*CAP
1 *522:B 3.28837e-05
2 *520:Y 3.28837e-05
3 *522:A *522:B 0.000118796
4 *12:196 *522:B 0.000225011
5 *71:25 *522:B 3.072e-06
*RES
1 *520:Y *522:B 20.9872 
*END

*D_NET *73 0.000233013
*CONN
*I *522:C I *D sky130_fd_sc_hd__nor3_1
*I *521:Y O *D sky130_fd_sc_hd__a31oi_1
*CAP
1 *522:C 7.60972e-05
2 *521:Y 7.60972e-05
3 *522:A *522:C 3.66041e-05
4 *12:142 *522:C 4.42142e-05
*RES
1 *521:Y *522:C 21.2042 
*END

*D_NET *74 0.00264738
*CONN
*I *524:B I *D sky130_fd_sc_hd__nor2_1
*I *529:A2 I *D sky130_fd_sc_hd__a21oi_1
*I *523:Y O *D sky130_fd_sc_hd__nor2_1
*CAP
1 *524:B 0.000298035
2 *529:A2 0
3 *523:Y 0.000267067
4 *74:10 0.000565102
5 *524:B *463:A 7.49694e-05
6 *524:B *526:A1 1.41976e-05
7 *524:B *527:A 8.62625e-06
8 *524:B *527:B 3.20069e-06
9 *524:B *121:21 1.95679e-05
10 *524:B *151:12 0.000156325
11 *74:10 *463:A 5.68225e-06
12 *74:10 *523:A 6.50727e-05
13 *74:10 *615:A 7.06075e-05
14 *74:10 *136:87 1.0652e-05
15 *74:10 *140:6 0.000159322
16 *74:10 *140:12 0.00011818
17 *74:10 *140:36 0
18 *74:10 *140:69 4.88955e-05
19 *74:10 *151:12 5.92342e-05
20 *74:10 *152:10 1.90218e-05
21 *529:A1 *524:B 2.94067e-05
22 *529:A1 *74:10 1.07248e-05
23 *541:B1 *74:10 2.22342e-05
24 *12:213 *524:B 0.000228035
25 *53:93 *524:B 7.12404e-05
26 *53:97 *524:B 0.000218531
27 *53:101 *74:10 0.000103445
28 *53:127 *524:B 0
29 *71:25 *524:B 0
*RES
1 *523:Y *74:10 23.6962 
2 *74:10 *529:A2 13.8 
3 *74:10 *524:B 32.7012 
*END

*D_NET *75 0.000562978
*CONN
*I *525:B1 I *D sky130_fd_sc_hd__a21oi_1
*I *524:Y O *D sky130_fd_sc_hd__nor2_1
*CAP
1 *525:B1 0.000123321
2 *524:Y 0.000123321
3 *525:B1 *121:21 0.000135376
4 *523:B *525:B1 0.000120114
5 *12:213 *525:B1 6.08467e-05
*RES
1 *524:Y *525:B1 30.9859 
*END

*D_NET *76 0.000654585
*CONN
*I *526:B1 I *D sky130_fd_sc_hd__a211oi_1
*I *525:Y O *D sky130_fd_sc_hd__a21oi_1
*CAP
1 *526:B1 0.000191068
2 *525:Y 0.000191068
3 *523:B *526:B1 3.24554e-05
4 *12:196 *526:B1 6.28701e-05
5 *51:109 *526:B1 9.68902e-05
6 *51:174 *526:B1 6.61019e-05
7 *71:34 *526:B1 1.41307e-05
*RES
1 *525:Y *526:B1 31.988 
*END

*D_NET *77 0.00943079
*CONN
*I *534:A I *D sky130_fd_sc_hd__nand2_1
*I *528:B I *D sky130_fd_sc_hd__nor2_1
*I *536:A3 I *D sky130_fd_sc_hd__a31oi_1
*I *540:D I *D sky130_fd_sc_hd__nand4_1
*I *541:A4 I *D sky130_fd_sc_hd__a41oi_1
*I *538:A2 I *D sky130_fd_sc_hd__a21oi_1
*I *542:A4 I *D sky130_fd_sc_hd__a41oi_1
*I *527:Y O *D sky130_fd_sc_hd__nor3_1
*CAP
1 *534:A 0.000375978
2 *528:B 0
3 *536:A3 0
4 *540:D 0
5 *541:A4 5.66227e-05
6 *538:A2 0.000483293
7 *542:A4 0.000660637
8 *527:Y 0.000792509
9 *77:62 5.66227e-05
10 *77:24 0.00150448
11 *77:18 0.000490431
12 *77:12 0.000203682
13 *77:10 0.00124229
14 *534:A *535:A2 4.30017e-06
15 *534:A *153:12 4.70005e-05
16 *538:A2 *538:A1 0.000530434
17 *538:A2 *144:20 5.44817e-06
18 *541:A4 *540:A 6.08467e-05
19 *541:A4 *541:A3 0.000211478
20 *541:A4 *546:C 7.6719e-06
21 *541:A4 *142:47 6.08467e-05
22 *541:A4 *142:57 1.41689e-05
23 *541:A4 *153:99 6.92705e-05
24 *542:A4 *537:B1 0
25 *542:A4 *545:A2 6.73022e-05
26 *542:A4 *546:A 0.0001297
27 *542:A4 *555:B 0.000111722
28 *542:A4 *140:12 1.77439e-05
29 *542:A4 *142:47 7.77309e-06
30 *542:A4 *143:51 0.000235992
31 *542:A4 *144:10 5.2092e-05
32 *542:A4 *144:20 4.51176e-05
33 *542:A4 *153:99 0.000159322
34 *77:10 *532:A2 3.54326e-05
35 *77:10 *599:CLK 5.4704e-05
36 *77:12 *599:CLK 0.000113096
37 *77:18 *536:A1 2.16355e-05
38 *77:18 *599:CLK 0.000200059
39 *77:18 *153:24 0.000133878
40 *77:24 *536:A1 0.000242887
41 *77:24 *546:A 0.00015917
42 *77:24 *142:47 1.55462e-05
43 *77:24 *153:24 1.82696e-05
44 *77:24 *153:28 0
45 *532:A1 *77:10 0.000125611
46 *532:A1 *77:12 3.38492e-05
47 *532:A1 *77:18 2.81678e-06
48 *599:D *534:A 0.000288762
49 *601:D *542:A4 4.76283e-05
50 *602:D *538:A2 1.66771e-05
51 *51:130 *542:A4 5.2472e-05
52 *51:139 *542:A4 2.18145e-05
53 *51:187 *77:18 2.71045e-05
54 *51:187 *77:24 0.000114594
*RES
1 *527:Y *77:10 27.4447 
2 *77:10 *77:12 2.24725 
3 *77:12 *77:18 9.13165 
4 *77:18 *77:24 16.0544 
5 *77:24 *542:A4 37.0281 
6 *77:24 *538:A2 22.8428 
7 *77:24 *77:62 4.5 
8 *77:62 *541:A4 12.2418 
9 *77:62 *540:D 9.3 
10 *77:18 *536:A3 9.3 
11 *77:12 *528:B 13.8 
12 *77:10 *534:A 29.8217 
*END

*D_NET *78 0.00122416
*CONN
*I *532:A2 I *D sky130_fd_sc_hd__o21ai_0
*I *530:B I *D sky130_fd_sc_hd__nor2_1
*I *528:Y O *D sky130_fd_sc_hd__nor2_1
*CAP
1 *532:A2 0.000217137
2 *530:B 9.23309e-05
3 *528:Y 0.000309468
4 *530:B *531:C 3.31725e-05
5 *530:B *153:24 6.08467e-05
6 *532:A2 *532:B1 2.5386e-05
7 *532:A2 *535:A1 0.00026818
8 *532:A2 *599:CLK 5.04734e-05
9 *530:A *530:B 2.57986e-05
10 *53:127 *530:B 2.16482e-05
11 *53:127 *532:A2 6.50727e-05
12 *53:134 *532:A2 1.92172e-05
13 *77:10 *532:A2 3.54326e-05
*RES
1 *528:Y *530:B 21.4212 
2 *528:Y *532:A2 34.4473 
*END

*D_NET *79 0.000975573
*CONN
*I *531:B I *D sky130_fd_sc_hd__nor3_1
*I *529:Y O *D sky130_fd_sc_hd__a21oi_1
*CAP
1 *531:B 0.000346177
2 *529:Y 0.000346177
3 *598:D *531:B 7.50872e-05
4 *12:221 *531:B 4.27003e-05
5 *51:187 *531:B 0.000157849
6 *53:101 *531:B 7.58217e-06
*RES
1 *529:Y *531:B 34.0376 
*END

*D_NET *80 0.000814298
*CONN
*I *531:C I *D sky130_fd_sc_hd__nor3_1
*I *530:Y O *D sky130_fd_sc_hd__nor2_1
*CAP
1 *531:C 0.000177085
2 *530:Y 0.000177085
3 *530:B *531:C 3.31725e-05
4 *12:213 *531:C 0.000171273
5 *53:127 *531:C 0.000255683
*RES
1 *530:Y *531:C 24.2184 
*END

*D_NET *81 0.00166164
*CONN
*I *535:A1 I *D sky130_fd_sc_hd__a21oi_1
*I *532:Y O *D sky130_fd_sc_hd__o21ai_0
*CAP
1 *535:A1 0.000246469
2 *532:Y 0.000246469
3 *535:A1 *532:B1 6.79599e-05
4 *535:A1 *535:A2 0.000263099
5 *535:A1 *599:CLK 2.2381e-05
6 *535:A1 *153:12 0.000242134
7 *532:A2 *535:A1 0.00026818
8 *536:B1 *535:A1 0.000226267
9 *547:B1 *535:A1 7.86847e-05
10 *599:D *535:A1 0
*RES
1 *532:Y *535:A1 38.9828 
*END

*D_NET *82 0.000220224
*CONN
*I *534:B I *D sky130_fd_sc_hd__nand2_1
*I *533:Y O *D sky130_fd_sc_hd__nor2_1
*CAP
1 *534:B 7.45917e-05
2 *533:Y 7.45917e-05
3 *534:B *535:A2 7.98425e-06
4 *534:B *153:24 6.30563e-05
5 *53:127 *534:B 0
*RES
1 *533:Y *534:B 20.4567 
*END

*D_NET *83 0.000917846
*CONN
*I *535:A2 I *D sky130_fd_sc_hd__a21oi_1
*I *534:Y O *D sky130_fd_sc_hd__nand2_1
*CAP
1 *535:A2 0.000205192
2 *534:Y 0.000205192
3 *535:A2 *547:A1 0.000156823
4 *535:A2 *547:A2 1.2693e-05
5 *535:A2 *153:24 2.41274e-06
6 *534:A *535:A2 4.30017e-06
7 *534:B *535:A2 7.98425e-06
8 *535:A1 *535:A2 0.000263099
9 *539:A *535:A2 1.44467e-05
10 *547:B1 *535:A2 9.2346e-06
11 *599:D *535:A2 3.64684e-05
*RES
1 *534:Y *535:A2 34.4473 
*END

*D_NET *84 0.00227683
*CONN
*I *537:B1 I *D sky130_fd_sc_hd__a21oi_1
*I *536:Y O *D sky130_fd_sc_hd__a31oi_1
*CAP
1 *537:B1 0.000416766
2 *536:Y 0.000416766
3 *537:B1 *539:B 0.000284902
4 *537:B1 *575:A1 5.22654e-06
5 *537:B1 *599:CLK 0.000341252
6 *537:B1 *602:CLK 0.000364295
7 *539:A *537:B1 0.000227918
8 *542:A4 *537:B1 0
9 *547:B1 *537:B1 9.25219e-05
10 *600:D *537:B1 0.000127179
*RES
1 *536:Y *537:B1 44.0391 
*END

*D_NET *85 0.00078623
*CONN
*I *539:B I *D sky130_fd_sc_hd__nor3_1
*I *537:Y O *D sky130_fd_sc_hd__a21oi_1
*CAP
1 *539:B 0.000191216
2 *537:Y 0.000191216
3 *539:B *537:A1 0
4 *539:B *547:A1 4.6163e-05
5 *537:A2 *539:B 7.27341e-05
6 *537:B1 *539:B 0.000284902
*RES
1 *537:Y *539:B 33.5136 
*END

*D_NET *86 0.000635983
*CONN
*I *539:C I *D sky130_fd_sc_hd__nor3_1
*I *538:Y O *D sky130_fd_sc_hd__a21oi_1
*CAP
1 *539:C 0.000263064
2 *538:Y 0.000263064
3 *539:C *142:37 0.000109855
*RES
1 *538:Y *539:C 23.6638 
*END

*D_NET *87 0.000929719
*CONN
*I *546:C I *D sky130_fd_sc_hd__or3_1
*I *540:Y O *D sky130_fd_sc_hd__nand4_1
*CAP
1 *546:C 0.000285877
2 *540:Y 0.000285877
3 *546:C *536:A1 0.000120052
4 *546:C *540:A 3.82228e-05
5 *546:C *545:A2 8.62625e-06
6 *546:C *136:87 5.70266e-05
7 *546:C *142:47 9.6622e-05
8 *546:C *142:57 1.41976e-05
9 *546:C *143:51 1.55462e-05
10 *541:A4 *546:C 7.6719e-06
11 *541:B1 *546:C 0
*RES
1 *540:Y *546:C 34.3107 
*END

*D_NET *88 0.00137971
*CONN
*I *545:A2 I *D sky130_fd_sc_hd__o21ai_0
*I *543:B I *D sky130_fd_sc_hd__nor2_1
*I *541:Y O *D sky130_fd_sc_hd__a41oi_1
*CAP
1 *545:A2 0.000226518
2 *543:B 0.000116573
3 *541:Y 0
4 *88:4 0.000343091
5 *543:B *544:C 7.50872e-05
6 *543:B *136:87 6.27575e-05
7 *543:B *142:57 6.50727e-05
8 *543:B *153:99 3.03173e-05
9 *545:A2 *136:87 6.73979e-05
10 *545:A2 *142:57 0.000164829
11 *545:A2 *143:51 2.90244e-05
12 *537:A2 *545:A2 9.14387e-06
13 *542:A4 *545:A2 6.73022e-05
14 *546:C *545:A2 8.62625e-06
15 *51:139 *545:A2 0.000113968
*RES
1 *541:Y *88:4 9.3 
2 *88:4 *543:B 21.6859 
3 *88:4 *545:A2 24.6277 
*END

*D_NET *89 0.000746799
*CONN
*I *544:B I *D sky130_fd_sc_hd__nor3_1
*I *542:Y O *D sky130_fd_sc_hd__a41oi_1
*CAP
1 *544:B 0.000176314
2 *542:Y 0.000176314
3 *544:B *140:12 0
4 *544:B *142:72 0.000217951
5 *542:A3 *544:B 0.000101133
6 *601:D *544:B 7.50872e-05
*RES
1 *542:Y *544:B 31.8192 
*END

*D_NET *90 0.000887207
*CONN
*I *544:C I *D sky130_fd_sc_hd__nor3_1
*I *543:Y O *D sky130_fd_sc_hd__nor2_1
*CAP
1 *544:C 0.000180575
2 *543:Y 0.000180575
3 *544:C *136:87 1.33686e-05
4 *544:C *140:12 0
5 *544:C *142:57 2.15184e-05
6 *544:C *153:99 0.000182929
7 *541:B1 *544:C 8.62625e-06
8 *542:A3 *544:C 0.000118166
9 *543:B *544:C 7.50872e-05
10 *544:A *544:C 7.97944e-05
11 *51:130 *544:C 2.65667e-05
*RES
1 *543:Y *544:C 33.9277 
*END

*D_NET *91 0.00233027
*CONN
*I *547:A1 I *D sky130_fd_sc_hd__a21oi_1
*I *545:Y O *D sky130_fd_sc_hd__o21ai_0
*CAP
1 *547:A1 0.000522223
2 *545:Y 0.000522223
3 *547:A1 *537:A1 0.000228075
4 *547:A1 *547:A2 0.000294241
5 *547:A1 *602:CLK 6.78596e-05
6 *547:A1 *142:10 0.000113534
7 *547:A1 *144:8 3.77539e-05
8 *535:A2 *547:A1 0.000156823
9 *539:A *547:A1 0.000130134
10 *539:B *547:A1 4.6163e-05
11 *602:D *547:A1 0.000211235
*RES
1 *545:Y *547:A1 46.2193 
*END

*D_NET *92 0.00175222
*CONN
*I *547:A2 I *D sky130_fd_sc_hd__a21oi_1
*I *546:X O *D sky130_fd_sc_hd__or3_1
*CAP
1 *547:A2 0.000500409
2 *546:X 0.000500409
3 *547:A2 *140:69 0.000165521
4 *547:A2 *140:78 7.92757e-06
5 *547:A2 *142:10 4.28856e-07
6 *535:A2 *547:A2 1.2693e-05
7 *547:A1 *547:A2 0.000294241
8 *599:D *547:A2 0.000231378
9 *600:D *547:A2 3.18826e-06
10 *602:D *547:A2 3.60268e-05
*RES
1 *546:X *547:A2 38.8841 
*END

*D_NET *93 0.000950967
*CONN
*I *550:C I *D sky130_fd_sc_hd__nand4_1
*I *548:X O *D sky130_fd_sc_hd__lpflow_isobufsrc_1
*CAP
1 *550:C 0.000241501
2 *548:X 0.000241501
3 *550:C *549:C 7.22498e-05
4 *550:C *550:D 9.11135e-05
5 *550:C *552:B 0
6 *550:C *552:D 3.43456e-05
7 *550:C *554:A2 0.000122098
8 *554:A1 *550:C 0.000148159
*RES
1 *548:X *550:C 35.8324 
*END

*D_NET *94 0.000948749
*CONN
*I *550:D I *D sky130_fd_sc_hd__nand4_1
*I *549:Y O *D sky130_fd_sc_hd__nor4b_1
*CAP
1 *550:D 0.000202067
2 *549:Y 0.000202067
3 *550:D *548:SLEEP 4.86647e-05
4 *550:D *553:B 0.000224783
5 *550:D *150:20 7.34948e-06
6 *550:C *550:D 9.11135e-05
7 *554:A1 *550:D 0.000172706
*RES
1 *549:Y *550:D 35.1384 
*END

*D_NET *95 0.000515811
*CONN
*I *554:A2 I *D sky130_fd_sc_hd__o21ai_0
*I *550:Y O *D sky130_fd_sc_hd__nand4_1
*CAP
1 *554:A2 0.000128056
2 *550:Y 0.000128056
3 *554:A2 *552:D 4.97436e-05
4 *554:A2 *553:C 6.08467e-05
5 *554:A2 *554:B1 2.65831e-05
6 *554:A2 *150:20 4.28856e-07
7 *550:C *554:A2 0.000122098
*RES
1 *550:Y *554:A2 31.294 
*END

*D_NET *96 0.00101017
*CONN
*I *553:B I *D sky130_fd_sc_hd__nand3_1
*I *551:Y O *D sky130_fd_sc_hd__nor4b_1
*CAP
1 *553:B 0.000266785
2 *551:Y 0.000266785
3 *553:B *548:SLEEP 6.31665e-05
4 *553:B *551:A 2.71542e-05
5 *553:B *551:D_N 2.65851e-05
6 *553:B *552:D 0
7 *553:B *141:19 0.000111708
8 *553:B *148:41 1.92172e-05
9 *553:B *149:16 3.99086e-06
10 *550:D *553:B 0.000224783
*RES
1 *551:Y *553:B 35.4199 
*END

*D_NET *97 0.00071039
*CONN
*I *553:C I *D sky130_fd_sc_hd__nand3_1
*I *552:Y O *D sky130_fd_sc_hd__nor4_1
*CAP
1 *553:C 0.000227189
2 *552:Y 0.000227189
3 *553:C *553:A 0.000159366
4 *553:C *554:B1 2.7304e-05
5 *553:C *557:A1 8.49565e-06
6 *554:A2 *553:C 6.08467e-05
*RES
1 *552:Y *553:C 24.1943 
*END

*D_NET *98 0.000394596
*CONN
*I *554:B1 I *D sky130_fd_sc_hd__o21ai_0
*I *553:Y O *D sky130_fd_sc_hd__nand3_1
*CAP
1 *554:B1 0.00015786
2 *553:Y 0.00015786
3 *554:B1 *553:A 9.85464e-06
4 *554:B1 *557:A1 1.51352e-05
5 *553:C *554:B1 2.7304e-05
6 *554:A2 *554:B1 2.65831e-05
*RES
1 *553:Y *554:B1 22.5546 
*END

*D_NET *99 0.00194461
*CONN
*I *557:A1 I *D sky130_fd_sc_hd__a32oi_1
*I *554:Y O *D sky130_fd_sc_hd__o21ai_0
*CAP
1 *557:A1 0.000693723
2 *554:Y 0.000693723
3 *557:A1 *557:A2 0.000325139
4 *557:A1 *558:B 0.000126643
5 *557:A1 *142:72 8.1747e-05
6 *557:A1 *169:30 0
7 *553:C *557:A1 8.49565e-06
8 *554:B1 *557:A1 1.51352e-05
*RES
1 *554:Y *557:A1 41.7937 
*END

*D_NET *100 0.00131948
*CONN
*I *557:A2 I *D sky130_fd_sc_hd__a32oi_1
*I *555:Y O *D sky130_fd_sc_hd__nor2_1
*CAP
1 *557:A2 0.000374523
2 *555:Y 0.000374523
3 *557:A2 *555:B 6.50586e-05
4 *557:A2 *101:14 0.00013982
5 *557:A2 *142:72 4.04121e-05
6 *557:A1 *557:A2 0.000325139
*RES
1 *555:Y *557:A2 37.0809 
*END

*D_NET *101 0.00279365
*CONN
*I *557:A3 I *D sky130_fd_sc_hd__a32oi_1
*I *556:Y O *D sky130_fd_sc_hd__nor4b_1
*CAP
1 *557:A3 0
2 *556:Y 0.000643044
3 *101:14 0.000643044
4 *101:14 *556:C 4.31539e-05
5 *101:14 *556:D_N 0.000111708
6 *101:14 *558:B 0
7 *101:14 *597:CLK 0.000235028
8 *101:14 *603:CLK 0.000205332
9 *101:14 *169:22 6.50586e-05
10 *557:A2 *101:14 0.00013982
11 *557:B1 *101:14 0
12 *558:A *101:14 3.71324e-05
13 *51:111 *101:14 0
14 *51:113 *101:14 0
15 *52:10 *101:14 0.000670332
*RES
1 *556:Y *101:14 41.235 
2 *101:14 *557:A3 9.3 
*END

*D_NET *102 0.000578204
*CONN
*I *558:B I *D sky130_fd_sc_hd__nor2_1
*I *557:Y O *D sky130_fd_sc_hd__a32oi_1
*CAP
1 *558:B 0.000224004
2 *557:Y 0.000224004
3 *558:B *549:D_N 0
4 *558:B *552:B 0
5 *557:A1 *558:B 0.000126643
6 *558:A *558:B 3.5534e-06
7 *101:14 *558:B 0
*RES
1 *557:Y *558:B 33.5845 
*END

*D_NET *103 0.000798918
*CONN
*I *560:A3 I *D sky130_fd_sc_hd__a31oi_1
*I *559:Y O *D sky130_fd_sc_hd__o21ai_0
*CAP
1 *560:A3 0.000299121
2 *559:Y 0.000299121
3 *560:A3 *487:B 0.000111722
4 *560:A3 *136:29 0
5 *560:A3 *166:23 7.50872e-05
6 *560:A3 *166:36 4.48292e-06
7 *560:A3 *167:12 0
8 *604:D *560:A3 9.38345e-06
9 *12:32 *560:A3 0
*RES
1 *559:Y *560:A3 33.5679 
*END

*D_NET *104 0.000428065
*CONN
*I *562:B1 I *D sky130_fd_sc_hd__a31oi_1
*I *561:Y O *D sky130_fd_sc_hd__a31oi_1
*CAP
1 *562:B1 0.000125124
2 *561:Y 0.000125124
3 *562:B1 *466:A 0
4 *562:B1 *561:A2 6.08467e-05
5 *562:B1 *561:B1 0.000116971
6 *562:B1 *168:78 0
7 *49:21 *562:B1 0
*RES
1 *561:Y *562:B1 30.5706 
*END

*D_NET *105 0.00131624
*CONN
*I *563:B I *D sky130_fd_sc_hd__nor2_1
*I *562:Y O *D sky130_fd_sc_hd__a31oi_1
*CAP
1 *563:B 0.000551893
2 *562:Y 0.000551893
3 *563:B *167:6 3.62662e-06
4 *562:A3 *563:B 0.000158357
5 *12:65 *563:B 5.04734e-05
*RES
1 *562:Y *563:B 36.6713 
*END

*D_NET *106 0.000607595
*CONN
*I *565:A2 I *D sky130_fd_sc_hd__a21oi_1
*I *564:Y O *D sky130_fd_sc_hd__o31ai_1
*CAP
1 *565:A2 0.000185433
2 *564:Y 0.000185433
3 *565:A2 *486:A3 1.07248e-05
4 *565:A2 *564:A1 6.50586e-05
5 *565:A2 *167:27 0.00011818
6 *565:A2 *168:35 0
7 *490:B1 *565:A2 3.01634e-05
8 *12:65 *565:A2 1.2601e-05
*RES
1 *564:Y *565:A2 31.6798 
*END

*D_NET *107 0.00554998
*CONN
*I *577:B I *D sky130_fd_sc_hd__nand2_1
*I *574:A2 I *D sky130_fd_sc_hd__a22oi_1
*I *568:A1 I *D sky130_fd_sc_hd__mux2i_1
*I *571:A2 I *D sky130_fd_sc_hd__a22oi_1
*I *566:Y O *D sky130_fd_sc_hd__o21ai_0
*CAP
1 *577:B 0
2 *574:A2 0.000113985
3 *568:A1 0.000271146
4 *571:A2 1.39263e-05
5 *566:Y 0.000417315
6 *107:35 0.000442818
7 *107:26 0.000605842
8 *107:12 0.000951544
9 *568:A1 *568:A0 0.000225743
10 *568:A1 *569:B 2.29454e-05
11 *568:A1 *574:B2 8.62625e-06
12 *568:A1 *575:A1 0.000106961
13 *568:A1 *136:65 0
14 *568:A1 *136:87 2.34328e-05
15 *568:A1 *154:18 6.42677e-05
16 *568:A1 *155:6 5.0715e-05
17 *568:A1 *155:10 0
18 *571:A2 *108:38 4.25927e-05
19 *571:A2 *155:40 1.51449e-05
20 *574:A2 *574:A1 2.71158e-05
21 *574:A2 *607:CLK 1.03049e-05
22 *574:A2 *108:38 6.0356e-05
23 *574:A2 *155:40 0.000207266
24 *107:12 *567:B 0.00033061
25 *107:12 *579:A1 7.50722e-05
26 *107:12 *108:12 1.41291e-05
27 *107:26 *478:S1 0.000158451
28 *107:26 *572:B 3.17266e-05
29 *107:26 *577:A 9.80128e-05
30 *107:26 *578:A 4.10961e-05
31 *107:26 *136:65 0.000109444
32 *107:26 *154:28 8.90486e-05
33 *107:26 *155:52 6.08467e-05
34 *107:35 *108:38 0.00046929
35 *107:35 *155:40 0.000202245
36 *579:B1 *107:12 2.65667e-05
37 *608:D *107:26 0.000148144
38 *1:18 *107:12 0
39 *12:289 *107:12 1.32509e-05
*RES
1 *566:Y *107:12 26.2621 
2 *107:12 *107:26 25.0692 
3 *107:26 *571:A2 9.80638 
4 *107:26 *107:35 5.16022 
5 *107:35 *568:A1 26.9532 
6 *107:35 *574:A2 13.556 
7 *107:12 *577:B 9.3 
*END

*D_NET *108 0.00378228
*CONN
*I *574:B1 I *D sky130_fd_sc_hd__a22oi_1
*I *568:A0 I *D sky130_fd_sc_hd__mux2i_1
*I *571:B1 I *D sky130_fd_sc_hd__a22oi_1
*I *578:D I *D sky130_fd_sc_hd__nand4_1
*I *567:X O *D sky130_fd_sc_hd__and2_0
*CAP
1 *574:B1 0
2 *568:A0 0.000122555
3 *571:B1 2.06324e-05
4 *578:D 5.40204e-05
5 *567:X 0.000304645
6 *108:38 0.000359637
7 *108:27 0.000430959
8 *108:12 0.000531911
9 *568:A0 *569:B 6.3657e-05
10 *568:A0 *154:18 0.000166733
11 *568:A0 *155:10 0.000109859
12 *568:A0 *155:12 5.41227e-05
13 *578:D *571:B2 2.99929e-05
14 *578:D *579:A2 1.03986e-05
15 *108:12 *579:A2 0.000167076
16 *108:12 *169:36 0
17 *108:27 *571:B2 5.19205e-05
18 *108:27 *572:B 4.31703e-05
19 *108:27 *155:46 2.65831e-05
20 *108:38 *572:B 1.92172e-05
21 *108:38 *574:A1 3.75603e-05
22 *108:38 *607:CLK 0.000158371
23 *108:38 *155:40 1.90594e-05
24 *108:38 *155:46 3.14978e-05
25 *568:A1 *568:A0 0.000225743
26 *571:A2 *108:38 4.25927e-05
27 *574:A2 *108:38 6.0356e-05
28 *579:B1 *108:12 0.000140001
29 *610:D *578:D 0
30 *610:D *108:27 0
31 *12:312 *108:12 1.65872e-05
32 *107:12 *108:12 1.41291e-05
33 *107:35 *108:38 0.00046929
*RES
1 *567:X *108:12 20.1177 
2 *108:12 *578:D 15.2167 
3 *108:12 *108:27 9.13445 
4 *108:27 *571:B1 9.87872 
5 *108:27 *108:38 9.06656 
6 *108:38 *568:A0 23.765 
7 *108:38 *574:B1 9.3 
*END

*D_NET *109 0.00119067
*CONN
*I *569:B I *D sky130_fd_sc_hd__nor2_1
*I *568:Y O *D sky130_fd_sc_hd__mux2i_1
*CAP
1 *569:B 0.000266407
2 *568:Y 0.000266407
3 *569:B *575:B1 0.000152131
4 *569:B *576:C 0
5 *569:B *154:18 0.000113185
6 *569:B *156:34 9.89388e-06
7 *569:B *156:43 0.000176145
8 *568:A0 *569:B 6.3657e-05
9 *568:A1 *569:B 2.29454e-05
10 *607:D *569:B 5.62418e-05
11 *12:321 *569:B 6.3657e-05
*RES
1 *568:Y *569:B 36.0012 
*END

*D_NET *110 0.00140968
*CONN
*I *571:B2 I *D sky130_fd_sc_hd__a22oi_1
*I *570:X O *D sky130_fd_sc_hd__xor2_1
*CAP
1 *571:B2 0.000342791
2 *570:X 0.000342791
3 *571:B2 *478:S0 1.44467e-05
4 *571:B2 *578:A 1.36815e-05
5 *571:B2 *578:C 5.47736e-05
6 *571:B2 *154:28 0.000217951
7 *571:B2 *155:46 0.000183422
8 *571:B2 *155:52 0.000157906
9 *578:D *571:B2 2.99929e-05
10 *610:D *571:B2 0
11 *12:289 *571:B2 0
12 *108:27 *571:B2 5.19205e-05
*RES
1 *570:X *571:B2 37.6327 
*END

*D_NET *111 0.00062914
*CONN
*I *572:B I *D sky130_fd_sc_hd__nor2_1
*I *571:Y O *D sky130_fd_sc_hd__a22oi_1
*CAP
1 *572:B 0.000198167
2 *571:Y 0.000198167
3 *572:B *578:A 1.07248e-05
4 *572:B *155:46 5.64929e-05
5 *608:D *572:B 7.14746e-05
6 *107:26 *572:B 3.17266e-05
7 *108:27 *572:B 4.31703e-05
8 *108:38 *572:B 1.92172e-05
*RES
1 *571:Y *572:B 32.0951 
*END

*D_NET *112 0.000588001
*CONN
*I *574:B2 I *D sky130_fd_sc_hd__a22oi_1
*I *573:Y O *D sky130_fd_sc_hd__nand3_1
*CAP
1 *574:B2 0.000146102
2 *573:Y 0.000146102
3 *574:B2 *607:CLK 0.000101133
4 *574:B2 *136:65 0
5 *574:B2 *154:18 0.000137936
6 *568:A1 *574:B2 8.62625e-06
7 *12:321 *574:B2 4.81015e-05
*RES
1 *573:Y *574:B2 31.5405 
*END

*D_NET *113 0.00128859
*CONN
*I *576:B I *D sky130_fd_sc_hd__nor3_1
*I *574:Y O *D sky130_fd_sc_hd__a22oi_1
*CAP
1 *576:B 0.00043067
2 *574:Y 0.00043067
3 *576:B *576:C 0.000101118
4 *576:B *607:CLK 0.000303375
5 *607:D *576:B 2.27595e-05
*RES
1 *574:Y *576:B 35.1468 
*END

*D_NET *114 0.00130958
*CONN
*I *576:C I *D sky130_fd_sc_hd__nor3_1
*I *575:Y O *D sky130_fd_sc_hd__a21oi_1
*CAP
1 *576:C 0.000469165
2 *575:Y 0.000469165
3 *576:C *575:A1 7.14746e-05
4 *576:C *575:A2 9.18471e-05
5 *576:C *575:B1 4.17531e-06
6 *576:C *154:10 2.99929e-05
7 *537:A2 *576:C 1.8523e-05
8 *569:B *576:C 0
9 *576:B *576:C 0.000101118
10 *607:D *576:C 5.41186e-05
*RES
1 *575:Y *576:C 38.7391 
*END

*D_NET *115 0.000179609
*CONN
*I *579:A1 I *D sky130_fd_sc_hd__a21oi_1
*I *577:Y O *D sky130_fd_sc_hd__nand2_1
*CAP
1 *579:A1 3.55283e-05
2 *577:Y 3.55283e-05
3 *12:289 *579:A1 3.34802e-05
4 *107:12 *579:A1 7.50722e-05
*RES
1 *577:Y *579:A1 29.0167 
*END

*D_NET *116 0.000774035
*CONN
*I *579:A2 I *D sky130_fd_sc_hd__a21oi_1
*I *578:Y O *D sky130_fd_sc_hd__nand4_1
*CAP
1 *579:A2 0.000119054
2 *578:Y 0.000119054
3 *579:A2 *169:30 0
4 *578:D *579:A2 1.03986e-05
5 *579:B1 *579:A2 6.56933e-05
6 *12:289 *579:A2 2.95757e-05
7 *12:312 *579:A2 0.000263184
8 *108:12 *579:A2 0.000167076
*RES
1 *578:Y *579:A2 32.2667 
*END

*D_NET *117 0.00235336
*CONN
*I *561:A1 I *D sky130_fd_sc_hd__a31oi_1
*I *486:A1 I *D sky130_fd_sc_hd__a31oi_1
*I *460:Y O *D sky130_fd_sc_hd__clkinv_1
*CAP
1 *561:A1 0.000118975
2 *486:A1 0.000269049
3 *460:Y 4.51842e-05
4 *117:8 0.000433209
5 *486:A1 *460:A 1.75293e-05
6 *486:A1 *462:A 0.000123597
7 *486:A1 *487:B 6.08467e-05
8 *486:A1 *559:A1 0.000114739
9 *486:A1 *118:10 8.62625e-06
10 *486:A1 *119:10 9.24241e-05
11 *486:A1 *167:10 2.15656e-05
12 *486:A1 *167:12 9.57015e-05
13 *486:A1 *169:67 9.75356e-05
14 *561:A1 *466:A 0
15 *561:A1 *561:B1 0.000181431
16 *561:A1 *118:10 0.000118485
17 *561:A1 *169:67 0.000139502
18 *561:A1 *169:78 0.00019364
19 *117:8 *166:93 6.08467e-05
20 *12:44 *486:A1 0.000128001
21 *12:52 *486:A1 3.24735e-05
*RES
1 *460:Y *117:8 14.5234 
2 *117:8 *486:A1 23.4416 
3 *117:8 *561:A1 19.7845 
*END

*D_NET *118 0.00172571
*CONN
*I *480:B I *D sky130_fd_sc_hd__nor3_1
*I *561:B1 I *D sky130_fd_sc_hd__a31oi_1
*I *562:A1 I *D sky130_fd_sc_hd__a31oi_1
*I *461:Y O *D sky130_fd_sc_hd__clkinv_1
*CAP
1 *480:B 0.000191951
2 *561:B1 0.000104817
3 *562:A1 2.50285e-05
4 *461:Y 0
5 *118:10 0.000231304
6 *118:4 0.00029341
7 *480:B *166:93 9.97706e-05
8 *480:B *168:64 6.74281e-05
9 *561:B1 *495:A 2.65831e-05
10 *561:B1 *561:A2 6.50727e-05
11 *561:B1 *166:108 1.77537e-06
12 *561:B1 *168:78 0
13 *562:A1 *167:6 2.16355e-05
14 *118:10 *166:93 6.50586e-05
15 *118:10 *166:108 1.32509e-05
16 *118:10 *167:10 7.14746e-05
17 *486:A1 *118:10 8.62625e-06
18 *561:A1 *561:B1 0.000181431
19 *561:A1 *118:10 0.000118485
20 *562:A3 *562:A1 2.16355e-05
21 *562:B1 *561:B1 0.000116971
*RES
1 *461:Y *118:4 9.3 
2 *118:4 *118:10 7.47064 
3 *118:10 *562:A1 14.5234 
4 *118:10 *561:B1 18.0164 
5 *118:4 *480:B 12.8205 
*END

*D_NET *119 0.00158656
*CONN
*I *559:A2 I *D sky130_fd_sc_hd__o21ai_0
*I *564:A3 I *D sky130_fd_sc_hd__o31ai_1
*I *462:Y O *D sky130_fd_sc_hd__clkinv_1
*CAP
1 *559:A2 0
2 *564:A3 0.000152124
3 *462:Y 0.000147736
4 *119:10 0.00029986
5 *564:A3 *485:B 5.56367e-05
6 *564:A3 *564:A2 0.000275256
7 *564:A3 *167:12 7.15574e-05
8 *564:A3 *167:14 8.89094e-05
9 *564:A3 *167:27 0.000115615
10 *564:A3 *168:26 9.35753e-06
11 *564:A3 *168:35 3.80659e-05
12 *119:10 *166:23 0.000107496
13 *119:10 *167:12 0.000116971
14 *486:A1 *119:10 9.24241e-05
15 *12:44 *564:A3 1.09738e-05
16 *12:44 *119:10 4.57241e-06
*RES
1 *462:Y *119:10 17.3252 
2 *119:10 *564:A3 20.6501 
3 *119:10 *559:A2 13.8 
*END

*D_NET *120 0.00059648
*CONN
*I *527:A I *D sky130_fd_sc_hd__nor3_1
*I *463:Y O *D sky130_fd_sc_hd__clkinv_1
*CAP
1 *527:A 0.000244695
2 *463:Y 0.000244695
3 *527:A *527:B 8.40649e-05
4 *527:A *151:12 0
5 *524:B *527:A 8.62625e-06
6 *527:C *527:A 0
7 *53:97 *527:A 1.43983e-05
*RES
1 *463:Y *527:A 33.8927 
*END

*D_NET *121 0.00277496
*CONN
*I *527:B I *D sky130_fd_sc_hd__nor3_1
*I *526:A1 I *D sky130_fd_sc_hd__a211oi_1
*I *523:A I *D sky130_fd_sc_hd__nor2_1
*I *464:Y O *D sky130_fd_sc_hd__clkinv_1
*CAP
1 *527:B 0.000178564
2 *526:A1 0.000177389
3 *523:A 0.000214955
4 *464:Y 0
5 *121:21 0.000595241
6 *121:6 0.000454244
7 *523:A *464:A 1.07248e-05
8 *523:A *140:12 8.01837e-05
9 *523:A *140:36 6.4628e-05
10 *523:A *152:10 3.67528e-06
11 *121:21 *463:A 4.06109e-05
12 *121:21 *464:A 6.43474e-05
13 *121:21 *152:10 2.22788e-05
14 *523:B *523:A 7.73653e-05
15 *523:B *121:21 4.16253e-05
16 *524:B *526:A1 1.41976e-05
17 *524:B *527:B 3.20069e-06
18 *524:B *121:21 1.95679e-05
19 *525:B1 *121:21 0.000135376
20 *527:A *527:B 8.40649e-05
21 *527:C *527:B 7.95228e-05
22 *541:B1 *523:A 0
23 *597:D *527:B 8.89094e-05
24 *597:D *121:21 3.31733e-05
25 *12:213 *526:A1 1.28832e-05
26 *53:93 *121:21 4.40531e-05
27 *71:34 *526:A1 0.000169107
28 *74:10 *523:A 6.50727e-05
*RES
1 *464:Y *121:6 13.8 
2 *121:6 *523:A 20.2561 
3 *121:6 *121:21 6.81502 
4 *121:21 *526:A1 16.7418 
5 *121:21 *527:B 19.6774 
*END

*D_NET *122 0.00058918
*CONN
*I *483:A2 I *D sky130_fd_sc_hd__a21oi_1
*I *465:Y O *D sky130_fd_sc_hd__nor2_1
*CAP
1 *483:A2 0.000221059
2 *465:Y 0.000221059
3 *483:A2 *465:A 7.98425e-06
4 *483:A2 *484:B 1.47102e-05
5 *483:A2 *489:A2 1.44467e-05
6 *483:A2 *137:18 0
7 *483:A2 *137:24 0
8 *483:A2 *166:51 0.000109921
*RES
1 *465:Y *483:A2 32.0951 
*END

*D_NET *123 0.00328928
*CONN
*I *553:A I *D sky130_fd_sc_hd__nand3_1
*I *493:A I *D sky130_fd_sc_hd__nor3_1
*I *467:B I *D sky130_fd_sc_hd__nand2_1
*I *466:Y O *D sky130_fd_sc_hd__nor3b_1
*CAP
1 *553:A 0.000311421
2 *493:A 0
3 *467:B 0.000323224
4 *466:Y 0.00033347
5 *123:10 0.000454044
6 *123:8 0.000775711
7 *467:B *466:C_N 0
8 *467:B *467:A 9.32809e-06
9 *467:B *481:A 5.93461e-05
10 *467:B *481:D_N 5.05252e-05
11 *467:B *488:B1 6.321e-05
12 *467:B *560:A1 0
13 *467:B *610:CLK 0
14 *467:B *130:38 0
15 *467:B *169:54 8.00505e-05
16 *553:A *548:A 5.53934e-05
17 *553:A *548:SLEEP 8.92568e-06
18 *123:8 *549:B 0.000510776
19 *123:10 *466:C_N 0
20 *123:10 *130:38 0
21 *488:C1 *467:B 1.07248e-05
22 *553:C *553:A 0.000159366
23 *554:A1 *553:A 0
24 *554:A1 *123:10 0
25 *554:B1 *553:A 9.85464e-06
26 *51:12 *553:A 5.59443e-05
27 *51:12 *123:10 1.79672e-05
*RES
1 *466:Y *123:8 19.5148 
2 *123:8 *123:10 2.6625 
3 *123:10 *467:B 22.4329 
4 *123:10 *493:A 13.8 
5 *123:8 *553:A 22.9408 
*END

*D_NET *124 0.00168297
*CONN
*I *468:B I *D sky130_fd_sc_hd__nor2_1
*I *560:A1 I *D sky130_fd_sc_hd__a31oi_1
*I *467:Y O *D sky130_fd_sc_hd__nand2_1
*CAP
1 *468:B 0.000158488
2 *560:A1 9.82614e-05
3 *467:Y 7.14008e-05
4 *124:8 0.00032815
5 *468:B *484:A 1.86035e-05
6 *468:B *488:B1 0
7 *468:B *137:18 2.22198e-05
8 *560:A1 *481:A 2.9959e-05
9 *560:A1 *560:A2 8.64351e-05
10 *560:A1 *137:8 0.000315461
11 *124:8 *481:A 4.27148e-05
12 *124:8 *482:B 7.56859e-06
13 *124:8 *488:B1 0
14 *467:B *560:A1 0
15 *488:C1 *468:B 0.000122098
16 *488:C1 *124:8 0.000151726
17 *12:32 *468:B 0.00011818
18 *12:44 *560:A1 0.000111708
*RES
1 *467:Y *124:8 16.4625 
2 *124:8 *560:A1 18.591 
3 *124:8 *468:B 18.571 
*END

*D_NET *125 0.00588207
*CONN
*I *475:S I *D sky130_fd_sc_hd__mux2_1
*I *469:S I *D sky130_fd_sc_hd__mux2_1
*I *470:S I *D sky130_fd_sc_hd__mux2_1
*I *472:S I *D sky130_fd_sc_hd__mux2_1
*I *471:S I *D sky130_fd_sc_hd__mux2_1
*I *476:S I *D sky130_fd_sc_hd__mux2_1
*I *474:S I *D sky130_fd_sc_hd__mux2_1
*I *473:S I *D sky130_fd_sc_hd__mux2_1
*I *468:Y O *D sky130_fd_sc_hd__nor2_1
*CAP
1 *475:S 0
2 *469:S 7.07675e-05
3 *470:S 0.000223125
4 *472:S 2.06324e-05
5 *471:S 2.06324e-05
6 *476:S 0
7 *474:S 5.75948e-05
8 *473:S 0
9 *468:Y 0.000298173
10 *125:65 0.000544343
11 *125:56 0.000474355
12 *125:47 0.000485069
13 *125:25 0.000790719
14 *125:18 0.000687845
15 *125:10 0.000514058
16 *469:S *469:A0 4.31703e-05
17 *470:S *470:A0 3.22024e-05
18 *470:S *477:A0 5.01375e-05
19 *470:S *477:A3 0
20 *470:S *158:12 0
21 *474:S *474:A0 8.07794e-05
22 *125:10 *585:CLK 0
23 *125:10 *164:12 1.82696e-05
24 *125:18 *164:12 0.000121054
25 *125:25 *473:A0 3.60591e-05
26 *125:47 *471:A0 1.00937e-05
27 *125:56 *471:A0 6.45664e-05
28 *125:56 *472:A0 4.81015e-05
29 *125:65 *469:A0 5.04829e-06
30 *125:65 *472:A0 4.95146e-05
31 *471:A1 *474:S 0.000179271
32 *471:A1 *125:47 0.000285824
33 *476:A1 *125:25 0.0002646
34 *1:18 *125:10 5.65074e-05
35 *1:18 *125:18 0.000174635
36 *3:15 *470:S 3.31882e-05
37 *4:17 *470:S 1.19856e-05
38 *12:17 *125:10 0.000115615
39 *12:32 *125:10 1.41291e-05
*RES
1 *468:Y *125:10 19.9589 
2 *125:10 *125:18 12.2188 
3 *125:18 *473:S 9.3 
4 *125:18 *125:25 11.2609 
5 *125:25 *474:S 21.3778 
6 *125:25 *476:S 9.3 
7 *125:25 *125:47 7.57154 
8 *125:47 *471:S 9.87872 
9 *125:47 *125:56 5.16022 
10 *125:56 *472:S 9.87872 
11 *125:56 *125:65 5.71483 
12 *125:65 *470:S 23.9015 
13 *125:65 *469:S 11.1567 
14 *125:10 *475:S 13.8 
*END

*D_NET *126 0.00242846
*CONN
*I *479:A0 I *D sky130_fd_sc_hd__mux2_1
*I *477:X O *D sky130_fd_sc_hd__mux4_2
*CAP
1 *479:A0 0.000752312
2 *477:X 0.000752312
3 *479:A0 *578:A 7.48633e-05
4 *479:A0 *581:CLK 0.000371516
5 *479:A0 *156:14 0.000132297
6 *479:A0 *159:12 0.000326398
7 *581:D *479:A0 1.87611e-05
*RES
1 *477:X *479:A0 44.9073 
*END

*D_NET *127 0.00025767
*CONN
*I *479:A1 I *D sky130_fd_sc_hd__mux2_1
*I *478:X O *D sky130_fd_sc_hd__mux4_2
*CAP
1 *479:A1 0.000102628
2 *478:X 0.000102628
3 *479:A1 *477:S0 1.84293e-05
4 *479:A1 *136:65 3.39843e-05
*RES
1 *478:X *479:A1 29.7401 
*END

*D_NET *128 0.00301941
*CONN
*I *488:A1 I *D sky130_fd_sc_hd__a221o_1
*I *479:X O *D sky130_fd_sc_hd__mux2_1
*CAP
1 *488:A1 0.00125833
2 *479:X 0.00125833
3 *488:A1 *585:CLK 1.43983e-05
4 *488:A1 *610:CLK 0.000144546
5 *488:A1 *137:18 9.60216e-05
6 *488:A1 *137:84 5.56367e-05
7 *488:A1 *157:14 0
8 *488:A1 *163:10 9.62156e-06
9 *585:D *488:A1 2.57966e-05
10 *588:D *488:A1 2.55493e-05
11 *1:18 *488:A1 2.26334e-05
12 *12:17 *488:A1 0.000108543
*RES
1 *479:X *488:A1 49.0063 
*END

*D_NET *129 0.00306862
*CONN
*I *566:B1 I *D sky130_fd_sc_hd__o21ai_0
*I *482:B I *D sky130_fd_sc_hd__nand2_1
*I *480:Y O *D sky130_fd_sc_hd__nor3_1
*CAP
1 *566:B1 0.000403294
2 *482:B 4.73959e-05
3 *480:Y 0.000260868
4 *129:8 0.000711557
5 *482:B *481:A 9.75356e-05
6 *482:B *488:B1 0.000122083
7 *566:B1 *481:A 9.24241e-05
8 *566:B1 *488:B1 2.09495e-05
9 *566:B1 *136:29 2.54335e-05
10 *566:B1 *169:36 9.28125e-05
11 *566:B1 *169:38 0.000625585
12 *566:B1 *169:54 0.000159151
13 *129:8 *488:B1 6.08467e-05
14 *129:8 *169:54 0.000341121
15 *124:8 *482:B 7.56859e-06
*RES
1 *480:Y *129:8 18.4056 
2 *129:8 *482:B 16.0472 
3 *129:8 *566:B1 25.9766 
*END

*D_NET *130 0.00388845
*CONN
*I *493:B I *D sky130_fd_sc_hd__nor3_1
*I *492:A I *D sky130_fd_sc_hd__nor2_1
*I *567:B I *D sky130_fd_sc_hd__and2_0
*I *488:A2 I *D sky130_fd_sc_hd__a221o_1
*I *481:Y O *D sky130_fd_sc_hd__nor4b_1
*CAP
1 *493:B 0.000110008
2 *492:A 0
3 *567:B 0.00022926
4 *488:A2 0
5 *481:Y 0.000233327
6 *130:38 0.00033415
7 *130:14 0.000339755
8 *130:8 0.000567964
9 *567:B *566:A1 0.000114594
10 *567:B *169:36 0.00033317
11 *567:B *169:38 0.000117238
12 *130:8 *466:C_N 9.82896e-06
13 *130:8 *481:A 2.41483e-05
14 *130:8 *481:C 4.33655e-05
15 *130:8 *481:D_N 0.000482508
16 *130:8 *610:CLK 0.000113968
17 *130:8 *166:121 1.61631e-05
18 *130:8 *168:91 1.19856e-05
19 *130:14 *610:CLK 7.0954e-05
20 *130:14 *157:10 3.37678e-05
21 *130:14 *157:14 1.77537e-06
22 *130:14 *169:38 1.67329e-05
23 *130:38 *610:CLK 7.77309e-06
24 *467:B *130:38 0
25 *492:B *493:B 0.00018468
26 *554:A1 *493:B 0.000122378
27 *554:A1 *130:38 3.83429e-05
28 *579:B1 *567:B 0
29 *1:18 *130:14 0
30 *1:18 *130:38 0
31 *107:12 *567:B 0.00033061
32 *123:10 *130:38 0
*RES
1 *481:Y *130:8 21.7332 
2 *130:8 *130:14 7.77669 
3 *130:14 *488:A2 9.3 
4 *130:14 *567:B 18.5293 
5 *130:8 *130:38 10.2409 
6 *130:38 *492:A 9.3 
7 *130:38 *493:B 13.2305 
*END

*D_NET *131 0.00102584
*CONN
*I *560:A2 I *D sky130_fd_sc_hd__a31oi_1
*I *484:A I *D sky130_fd_sc_hd__nand2_1
*I *482:Y O *D sky130_fd_sc_hd__nand2_1
*CAP
1 *560:A2 0.000143448
2 *484:A 0.000114639
3 *482:Y 0.000258086
4 *484:A *484:B 5.22654e-06
5 *484:A *488:B1 9.96342e-05
6 *484:A *137:8 6.50727e-05
7 *484:A *137:18 5.77352e-05
8 *468:B *484:A 1.86035e-05
9 *560:A1 *560:A2 8.64351e-05
10 *12:32 *484:A 5.68225e-06
11 *12:44 *560:A2 0.000171273
*RES
1 *482:Y *484:A 30.9859 
2 *482:Y *560:A2 22.651 
*END

*D_NET *132 0.00103405
*CONN
*I *484:B I *D sky130_fd_sc_hd__nand2_1
*I *483:Y O *D sky130_fd_sc_hd__a21oi_1
*CAP
1 *484:B 0.000437755
2 *483:Y 0.000437755
3 *484:B *485:C 2.57847e-05
4 *484:B *134:25 0
5 *484:B *137:18 9.43476e-05
6 *483:A2 *484:B 1.47102e-05
7 *484:A *484:B 5.22654e-06
8 *485:D *484:B 2.86013e-06
9 *2:17 *484:B 1.56102e-05
*RES
1 *483:Y *484:B 36.6657 
*END

*D_NET *133 0.00135291
*CONN
*I *488:B1 I *D sky130_fd_sc_hd__a221o_1
*I *484:Y O *D sky130_fd_sc_hd__nand2_1
*CAP
1 *488:B1 0.000357973
2 *484:Y 0.000357973
3 *488:B1 *136:29 1.48603e-05
4 *488:B1 *169:38 6.46887e-05
5 *488:B1 *169:54 9.68771e-05
6 *467:B *488:B1 6.321e-05
7 *468:B *488:B1 0
8 *482:B *488:B1 0.000122083
9 *484:A *488:B1 9.96342e-05
10 *488:B2 *488:B1 3.27324e-05
11 *566:B1 *488:B1 2.09495e-05
12 *12:32 *488:B1 6.10852e-05
13 *124:8 *488:B1 0
14 *129:8 *488:B1 6.08467e-05
*RES
1 *484:Y *488:B1 37.7749 
*END

*D_NET *134 0.00314058
*CONN
*I *487:A I *D sky130_fd_sc_hd__nand2_1
*I *565:A1 I *D sky130_fd_sc_hd__a21oi_1
*I *490:A1 I *D sky130_fd_sc_hd__a21oi_1
*I *485:X O *D sky130_fd_sc_hd__or4_1
*CAP
1 *487:A 6.13726e-05
2 *565:A1 0.000165179
3 *490:A1 0.00048673
4 *485:X 0
5 *134:25 0.000426546
6 *134:6 0.000686724
7 *487:A *487:B 4.80635e-06
8 *490:A1 *485:B 5.22654e-06
9 *490:A1 *489:A1 0
10 *490:A1 *489:A2 0.000177162
11 *490:A1 *166:51 1.65078e-05
12 *490:A1 *168:12 0
13 *565:A1 *486:A2 0.000317693
14 *565:A1 *487:B 4.1354e-05
15 *565:A1 *559:A1 2.41483e-05
16 *134:25 *485:B 7.06474e-05
17 *134:25 *166:36 0.000122083
18 *134:25 *166:51 2.69064e-05
19 *134:25 *167:12 3.20069e-06
20 *134:25 *167:14 3.92275e-05
21 *484:B *134:25 0
22 *488:C1 *487:A 8.97566e-06
23 *490:A2 *490:A1 0.000222149
24 *12:52 *565:A1 0.000233941
*RES
1 *485:X *134:6 13.8 
2 *134:6 *490:A1 23.5624 
3 *134:6 *134:25 10.2636 
4 *134:25 *565:A1 15.8467 
5 *134:25 *487:A 10.8794 
*END

*D_NET *135 0.000593959
*CONN
*I *487:B I *D sky130_fd_sc_hd__nand2_1
*I *486:Y O *D sky130_fd_sc_hd__a31oi_1
*CAP
1 *487:B 0.000187615
2 *486:Y 0.000187615
3 *487:B *559:A1 0
4 *486:A1 *487:B 6.08467e-05
5 *487:A *487:B 4.80635e-06
6 *560:A3 *487:B 0.000111722
7 *565:A1 *487:B 4.1354e-05
*RES
1 *486:Y *487:B 23.278 
*END

*D_NET *1 0.00376106
*CONN
*P clk I
*I *611:A I *D sky130_fd_sc_hd__clkbuf_4
*CAP
1 clk 0.00141518
2 *611:A 5.22788e-05
3 *1:18 0.00146745
4 *611:A *136:8 2.85139e-05
5 *1:18 *473:A1 0.000169863
6 *1:18 *475:A1 0.000368314
7 *1:18 *488:A1 2.26334e-05
8 *1:18 *585:CLK 0
9 *1:18 *107:12 0
10 *1:18 *125:10 5.65074e-05
11 *1:18 *125:18 0.000174635
12 *1:18 *130:14 0
13 *1:18 *130:38 0
14 *1:18 *137:18 5.68225e-06
15 *1:18 *157:10 0
16 *1:18 *157:14 0
17 *1:18 *164:12 0
18 *1:18 *169:30 0
*RES
1 clk *1:18 39.0866 
2 *1:18 *611:A 15.078 
*END

*D_NET *136 0.0113831
*CONN
*I *615:A I *D sky130_fd_sc_hd__clkbuf_4
*I *613:A I *D sky130_fd_sc_hd__clkbuf_4
*I *614:A I *D sky130_fd_sc_hd__clkbuf_4
*I *612:A I *D sky130_fd_sc_hd__clkbuf_4
*I *611:X O *D sky130_fd_sc_hd__clkbuf_4
*CAP
1 *615:A 5.06781e-05
2 *613:A 4.20096e-05
3 *614:A 2.56808e-05
4 *612:A 5.58108e-05
5 *611:X 5.22719e-05
6 *136:87 0.000795709
7 *136:65 0.00067394
8 *136:61 0.00223356
9 *136:45 0.0011139
10 *136:29 0.000723408
11 *136:19 0.00236695
12 *136:15 0.00149086
13 *136:8 7.53953e-05
14 *613:A *477:S0 5.56461e-05
15 *136:29 *466:A 1.75625e-05
16 *136:29 *466:B 2.85807e-05
17 *136:29 *466:C_N 7.7335e-05
18 *136:29 *481:A 0
19 *136:29 *166:125 5.9708e-05
20 *136:29 *167:12 2.24571e-05
21 *136:29 *168:78 1.2641e-05
22 *136:45 *466:B 7.06125e-05
23 *136:45 *466:C_N 5.96906e-05
24 *136:45 *495:A 0
25 *136:45 *548:A 0
26 *136:45 *139:8 5.27412e-05
27 *136:45 *149:8 3.40703e-05
28 *136:45 *149:16 7.55711e-05
29 *136:45 *149:45 0.000109962
30 *136:45 *149:60 1.61148e-05
31 *136:45 *149:71 0
32 *136:61 *144:20 0
33 *136:65 *478:A0 6.07581e-06
34 *136:65 *478:S0 0
35 *136:65 *578:A 0
36 *136:65 *607:CLK 0
37 *136:65 *138:69 0
38 *136:65 *138:80 0
39 *136:87 *575:B1 0
40 *136:87 *140:69 5.30452e-05
41 *136:87 *144:20 0
42 *136:87 *153:99 5.9807e-07
43 *136:87 *155:10 0
44 *479:A1 *136:65 3.39843e-05
45 *488:B1 *136:29 1.48603e-05
46 *512:A2 *136:45 0
47 *516:A2 *136:45 0
48 *516:B1 *136:45 0.000200933
49 *537:A2 *136:87 5.6039e-06
50 *541:B1 *136:87 7.37511e-05
51 *543:B *136:87 6.27575e-05
52 *544:C *136:87 1.33686e-05
53 *545:A2 *136:87 6.73979e-05
54 *546:C *136:87 5.70266e-05
55 *560:A3 *136:29 0
56 *566:B1 *136:29 2.54335e-05
57 *568:A1 *136:65 0
58 *568:A1 *136:87 2.34328e-05
59 *574:B2 *136:65 0
60 *601:D *136:87 0
61 *608:D *136:65 5.70115e-06
62 *611:A *136:8 2.85139e-05
63 *12:44 *612:A 6.26225e-05
64 *12:44 *136:29 1.14727e-05
65 *51:12 *136:45 5.29898e-05
66 *51:29 *136:45 0
67 *53:62 *136:45 0
68 *53:77 *136:45 0
69 *62:85 *136:45 0
70 *74:10 *615:A 7.06075e-05
71 *74:10 *136:87 1.0652e-05
72 *107:26 *136:65 0.000109444
*RES
1 *611:X *136:8 15.078 
2 *136:8 *136:15 3.78861 
3 *136:15 *136:19 4.83671 
4 *136:19 *136:29 18.5884 
5 *136:29 *612:A 10.8553 
6 *136:19 *136:45 33.9827 
7 *136:45 *614:A 9.74609 
8 *136:15 *136:61 2.48094 
9 *136:61 *136:65 19.1529 
10 *136:65 *613:A 15.078 
11 *136:61 *136:87 23.8502 
12 *136:87 *615:A 11.1869 
*END

*D_NET *137 0.00972152
*CONN
*I *610:CLK I *D sky130_fd_sc_hd__dfxtp_1
*I *588:CLK I *D sky130_fd_sc_hd__dfxtp_1
*I *584:CLK I *D sky130_fd_sc_hd__dfxtp_1
*I *586:CLK I *D sky130_fd_sc_hd__dfxtp_1
*I *589:CLK I *D sky130_fd_sc_hd__dfxtp_1
*I *605:CLK I *D sky130_fd_sc_hd__dfxtp_1
*I *604:CLK I *D sky130_fd_sc_hd__dfxtp_1
*I *606:CLK I *D sky130_fd_sc_hd__dfxtp_1
*I *612:X O *D sky130_fd_sc_hd__clkbuf_4
*CAP
1 *610:CLK 0.000255408
2 *588:CLK 2.62951e-05
3 *584:CLK 0
4 *586:CLK 3.5247e-05
5 *589:CLK 3.5247e-05
6 *605:CLK 0.000325289
7 *604:CLK 3.58004e-05
8 *606:CLK 0
9 *612:X 0.000313358
10 *137:84 0.000295133
11 *137:41 0.000743131
12 *137:32 0.000712023
13 *137:26 0.00140277
14 *137:24 0.00132831
15 *137:18 0.000601397
16 *137:8 0.000672669
17 *588:CLK *157:18 2.16355e-05
18 *610:CLK *157:14 0
19 *137:8 *157:18 3.00505e-05
20 *137:24 *489:A2 0
21 read_en *137:24 7.25324e-06
22 read_en *137:26 4.71461e-05
23 *467:B *610:CLK 0
24 *468:B *137:18 2.22198e-05
25 *475:A1 *137:18 0
26 *483:A2 *137:18 0
27 *483:A2 *137:24 0
28 *484:A *137:8 6.50727e-05
29 *484:A *137:18 5.77352e-05
30 *484:B *137:18 9.43476e-05
31 *488:A1 *610:CLK 0.000144546
32 *488:A1 *137:18 9.60216e-05
33 *488:A1 *137:84 5.56367e-05
34 *488:B2 *588:CLK 7.92757e-06
35 *488:B2 *610:CLK 0.000158353
36 *488:B2 *137:8 6.08467e-05
37 *488:B2 *137:18 2.95757e-05
38 *488:B2 *137:84 5.0608e-05
39 *488:C1 *137:18 0.000179149
40 *489:B1 *137:26 0.00011818
41 *560:A1 *137:8 0.000315461
42 *586:D *137:18 0.000130777
43 *586:D *137:24 0.000346318
44 *589:D *137:26 3.18826e-06
45 *604:D *137:8 6.08467e-05
46 *606:D *137:32 3.28433e-06
47 *606:D *137:41 0.000128457
48 *1:18 *137:18 5.68225e-06
49 *12:32 *137:18 0.000324166
50 *12:44 *137:8 0.000182258
51 *130:8 *610:CLK 0.000113968
52 *130:14 *610:CLK 7.0954e-05
53 *130:38 *610:CLK 7.77309e-06
*RES
1 *612:X *137:8 22.8424 
2 *137:8 *137:18 21.9739 
3 *137:18 *137:24 11.7625 
4 *137:24 *137:26 15.6977 
5 *137:26 *137:32 11.3473 
6 *137:32 *606:CLK 13.8 
7 *137:32 *137:41 10.5523 
8 *137:41 *604:CLK 14.5234 
9 *137:41 *605:CLK 21.3384 
10 *137:26 *589:CLK 10.2886 
11 *137:24 *586:CLK 10.2886 
12 *137:18 *584:CLK 13.8 
13 *137:8 *137:84 1.00149 
14 *137:84 *588:CLK 14.5234 
15 *137:84 *610:CLK 22.0324 
*END

*D_NET *138 0.00830075
*CONN
*I *607:CLK I *D sky130_fd_sc_hd__dfxtp_1
*I *609:CLK I *D sky130_fd_sc_hd__dfxtp_1
*I *581:CLK I *D sky130_fd_sc_hd__dfxtp_1
*I *583:CLK I *D sky130_fd_sc_hd__dfxtp_1
*I *580:CLK I *D sky130_fd_sc_hd__dfxtp_1
*I *582:CLK I *D sky130_fd_sc_hd__dfxtp_1
*I *585:CLK I *D sky130_fd_sc_hd__dfxtp_1
*I *587:CLK I *D sky130_fd_sc_hd__dfxtp_1
*I *613:X O *D sky130_fd_sc_hd__clkbuf_4
*CAP
1 *607:CLK 0.000319776
2 *609:CLK 0.000163805
3 *581:CLK 5.90352e-05
4 *583:CLK 0
5 *580:CLK 0.000500957
6 *582:CLK 0
7 *585:CLK 0.000350251
8 *587:CLK 9.63358e-06
9 *613:X 0
10 *138:80 0.000641143
11 *138:69 0.00032936
12 *138:51 0.00081598
13 *138:16 0.000663046
14 *138:14 0.000329289
15 *138:12 0.000752281
16 *138:6 0.000523893
17 *580:CLK *161:10 1.27193e-05
18 *581:CLK *156:14 0.000269642
19 *585:CLK *164:12 0
20 *587:CLK *478:A0 1.84293e-05
21 *607:CLK *574:A1 6.38636e-05
22 *607:CLK *154:18 4.06401e-05
23 *607:CLK *154:28 8.07939e-05
24 *609:CLK *154:28 0.000113968
25 *609:CLK *156:8 2.78496e-05
26 *138:12 *471:A0 3.98472e-05
27 *138:12 *477:A2 7.41203e-05
28 *138:12 *478:A0 4.26566e-05
29 *138:14 *478:A0 1.43848e-05
30 *138:16 *478:A0 0.000234779
31 *138:51 *474:A0 0
32 *138:51 *476:A0 0
33 *138:69 *477:A2 5.22654e-06
34 *138:69 *477:S1 0
35 *138:80 *477:S1 0
36 *138:80 *154:28 1.09738e-05
37 tx *585:CLK 0
38 *471:A1 *138:51 0
39 *479:A0 *581:CLK 0.000371516
40 *488:A1 *585:CLK 1.43983e-05
41 *574:A2 *607:CLK 1.03049e-05
42 *574:B2 *607:CLK 0.000101133
43 *576:B *607:CLK 0.000303375
44 *582:D *138:12 1.87611e-05
45 *582:D *138:51 4.61732e-05
46 *583:D *580:CLK 0.000286895
47 *583:D *138:51 0
48 *587:D *138:16 0.000375996
49 *1:18 *585:CLK 0
50 *2:17 *587:CLK 4.03114e-05
51 *2:17 *138:16 3.85848e-05
52 *12:17 *585:CLK 2.65831e-05
53 *108:38 *607:CLK 0.000158371
54 *125:10 *585:CLK 0
55 *136:65 *607:CLK 0
56 *136:65 *138:69 0
57 *136:65 *138:80 0
*RES
1 *613:X *138:6 13.8 
2 *138:6 *138:12 15.6475 
3 *138:12 *138:14 0.723396 
4 *138:14 *138:16 10.7063 
5 *138:16 *587:CLK 10.0234 
6 *138:16 *585:CLK 26.5712 
7 *138:14 *582:CLK 9.3 
8 *138:12 *138:51 16.6778 
9 *138:51 *580:CLK 21.5736 
10 *138:51 *583:CLK 9.3 
11 *138:6 *138:69 2.6625 
12 *138:69 *581:CLK 17.851 
13 *138:69 *138:80 3.493 
14 *138:80 *609:CLK 17.851 
15 *138:80 *607:CLK 24.8295 
*END

*D_NET *139 0.0086254
*CONN
*I *596:CLK I *D sky130_fd_sc_hd__dfxtp_1
*I *593:CLK I *D sky130_fd_sc_hd__dfxtp_1
*I *595:CLK I *D sky130_fd_sc_hd__dfxtp_1
*I *616:A I *D sky130_fd_sc_hd__clkbuf_1
*I *592:CLK I *D sky130_fd_sc_hd__dfxtp_1
*I *594:CLK I *D sky130_fd_sc_hd__dfxtp_1
*I *590:CLK I *D sky130_fd_sc_hd__dfxtp_1
*I *591:CLK I *D sky130_fd_sc_hd__dfxtp_1
*I *614:X O *D sky130_fd_sc_hd__clkbuf_4
*CAP
1 *596:CLK 0
2 *593:CLK 0.00010047
3 *595:CLK 0.000289309
4 *616:A 2.49637e-05
5 *592:CLK 0
6 *594:CLK 0.000271783
7 *590:CLK 0
8 *591:CLK 0.000465813
9 *614:X 0.000379231
10 *139:32 0.000840779
11 *139:30 0.000646749
12 *139:28 0.000479949
13 *139:20 0.000545167
14 *139:16 0.000487652
15 *139:14 0.000451127
16 *139:8 0.000571801
17 *593:CLK *147:6 3.82228e-05
18 *595:CLK *505:A1 5.04829e-06
19 *595:CLK *507:C 0.000136557
20 *616:A *146:47 3.8122e-05
21 *139:14 *519:A 0
22 *139:14 *150:14 3.08133e-05
23 *139:14 *150:20 3.635e-05
24 *139:16 *146:47 6.11359e-06
25 *139:28 *505:B1 0.000107496
26 *139:28 *146:6 6.08467e-05
27 *139:28 *146:36 0.000158371
28 *139:28 *146:47 0.000111708
29 *504:B1 *139:28 0.000111722
30 *506:B *594:CLK 0
31 *506:B *139:28 3.00613e-05
32 *506:B *139:32 0
33 *508:A2_N *593:CLK 2.91559e-06
34 *508:A2_N *139:16 1.41291e-05
35 *508:B1 *593:CLK 1.64789e-05
36 *514:B *594:CLK 0
37 *590:D *591:CLK 0
38 *590:D *139:32 0
39 *592:D *139:28 1.87611e-05
40 *592:D *139:32 3.01634e-05
41 *594:D *594:CLK 0
42 *595:D *595:CLK 2.70271e-05
43 *12:74 *591:CLK 0
44 *12:89 *591:CLK 0
45 *12:89 *139:32 0
46 *51:53 *139:20 0.000171391
47 *51:53 *139:28 1.4946e-05
48 *51:68 *139:16 0.000116014
49 *51:68 *139:20 4.88955e-05
50 *51:81 *593:CLK 2.42138e-05
51 *51:81 *139:16 0.000700599
52 *51:98 *593:CLK 7.92757e-06
53 *53:77 *595:CLK 4.74809e-05
54 *62:18 *139:16 2.65831e-05
55 *62:28 *595:CLK 7.52542e-05
56 *62:28 *616:A 6.50727e-05
57 *62:28 *139:16 0.00025084
58 *62:28 *139:20 0.000124312
59 *62:28 *139:28 3.01683e-06
60 *62:74 *139:14 0.000156578
61 *62:85 *139:14 0.000203833
62 *136:45 *139:8 5.27412e-05
*RES
1 *614:X *139:8 17.812 
2 *139:8 *139:14 15.3998 
3 *139:14 *139:16 9.04245 
4 *139:16 *139:20 2.82124 
5 *139:20 *139:28 12.5871 
6 *139:28 *139:30 4.5 
7 *139:30 *139:32 9.72179 
8 *139:32 *591:CLK 25.2206 
9 *139:32 *590:CLK 13.8 
10 *139:30 *594:CLK 20.615 
11 *139:28 *592:CLK 9.3 
12 *139:20 *616:A 10.578 
13 *139:16 *595:CLK 25.7047 
14 *139:14 *593:CLK 12.1212 
15 *139:8 *596:CLK 9.3 
*END

*D_NET *140 0.00907816
*CONN
*I *599:CLK I *D sky130_fd_sc_hd__dfxtp_1
*I *602:CLK I *D sky130_fd_sc_hd__dfxtp_1
*I *600:CLK I *D sky130_fd_sc_hd__dfxtp_1
*I *598:CLK I *D sky130_fd_sc_hd__dfxtp_1
*I *597:CLK I *D sky130_fd_sc_hd__dfxtp_1
*I *603:CLK I *D sky130_fd_sc_hd__dfxtp_1
*I *601:CLK I *D sky130_fd_sc_hd__dfxtp_1
*I *608:CLK I *D sky130_fd_sc_hd__dfxtp_1
*I *615:X O *D sky130_fd_sc_hd__clkbuf_4
*CAP
1 *599:CLK 0.0003228
2 *602:CLK 0.000256242
3 *600:CLK 0
4 *598:CLK 0
5 *597:CLK 0.000370686
6 *603:CLK 0.000306073
7 *601:CLK 2.61647e-05
8 *608:CLK 0.000118701
9 *615:X 0
10 *140:78 0.000614063
11 *140:69 0.000349085
12 *140:40 0.000953036
13 *140:36 0.000370613
14 *140:12 0.000605674
15 *140:6 0.000610369
16 *140:4 0.000369288
17 *597:CLK *520:A1 0
18 *599:CLK *153:24 1.65239e-05
19 *599:CLK *153:28 0.000303003
20 *601:CLK *143:8 2.57847e-05
21 *602:CLK *538:A1 8.41511e-06
22 *602:CLK *144:8 1.41181e-05
23 *602:CLK *144:20 0
24 *602:CLK *153:28 0.000157517
25 *608:CLK *143:14 2.81678e-06
26 *608:CLK *169:22 5.75903e-05
27 *140:12 *542:B1 3.92734e-05
28 *140:12 *143:14 1.87825e-05
29 *140:12 *169:10 2.7961e-05
30 *140:12 *169:12 5.29512e-05
31 *140:69 *546:A 4.31539e-05
32 *523:A *140:12 8.01837e-05
33 *523:A *140:36 6.4628e-05
34 *523:B *597:CLK 0
35 *523:B *140:12 5.97523e-05
36 *527:C *597:CLK 0
37 *532:A2 *599:CLK 5.04734e-05
38 *535:A1 *599:CLK 2.2381e-05
39 *536:B1 *599:CLK 9.98129e-05
40 *537:B1 *599:CLK 0.000341252
41 *537:B1 *602:CLK 0.000364295
42 *541:B1 *140:12 0
43 *542:A3 *140:12 0
44 *542:A4 *140:12 1.77439e-05
45 *544:B *140:12 0
46 *544:C *140:12 0
47 *546:B *140:69 0.000277502
48 *547:A1 *602:CLK 6.78596e-05
49 *547:A2 *140:69 0.000165521
50 *547:A2 *140:78 7.92757e-06
51 *601:D *140:12 5.05168e-05
52 *603:D *603:CLK 1.87611e-05
53 *51:98 *597:CLK 0
54 *51:109 *597:CLK 3.75126e-05
55 *51:111 *597:CLK 6.43304e-05
56 *51:111 *603:CLK 5.93657e-05
57 *51:111 *140:12 0
58 *74:10 *140:6 0.000159322
59 *74:10 *140:12 0.00011818
60 *74:10 *140:36 0
61 *74:10 *140:69 4.88955e-05
62 *77:10 *599:CLK 5.4704e-05
63 *77:12 *599:CLK 0.000113096
64 *77:18 *599:CLK 0.000200059
65 *101:14 *597:CLK 0.000235028
66 *101:14 *603:CLK 0.000205332
67 *136:87 *140:69 5.30452e-05
*RES
1 *615:X *140:4 9.3 
2 *140:4 *140:6 1.8326 
3 *140:6 *140:12 16.8849 
4 *140:12 *608:CLK 17.293 
5 *140:12 *601:CLK 14.5234 
6 *140:6 *140:36 11.6625 
7 *140:36 *140:40 10.2148 
8 *140:40 *603:CLK 22.4532 
9 *140:40 *597:CLK 23.937 
10 *140:36 *598:CLK 9.3 
11 *140:4 *140:69 9.47649 
12 *140:69 *600:CLK 9.3 
13 *140:69 *140:78 5.2234 
14 *140:78 *602:CLK 21.3384 
15 *140:78 *599:CLK 27.2591 
*END

*D_NET *141 0.0096174
*CONN
*I *503:A3 I *D sky130_fd_sc_hd__a31oi_1
*I *505:A2 I *D sky130_fd_sc_hd__a21oi_1
*I *501:A2 I *D sky130_fd_sc_hd__o21ai_0
*I *497:A1 I *D sky130_fd_sc_hd__a21oi_1
*I *549:C I *D sky130_fd_sc_hd__nor4b_1
*I *496:A I *D sky130_fd_sc_hd__nor2_1
*I *551:C I *D sky130_fd_sc_hd__nor4b_1
*I *507:D I *D sky130_fd_sc_hd__and4_1
*I *509:A3 I *D sky130_fd_sc_hd__a31oi_1
*I *500:A2 I *D sky130_fd_sc_hd__a21oi_1
*I *590:Q O *D sky130_fd_sc_hd__dfxtp_1
*CAP
1 *503:A3 0.000220467
2 *505:A2 3.29888e-05
3 *501:A2 0
4 *497:A1 4.99169e-05
5 *549:C 0.000475982
6 *496:A 0.000164002
7 *551:C 0
8 *507:D 0.00016082
9 *509:A3 0
10 *500:A2 0
11 *590:Q 4.82591e-05
12 *141:96 0.000376376
13 *141:80 4.99169e-05
14 *141:52 0.00071681
15 *141:50 0.000183129
16 *141:48 0.000229224
17 *141:23 0.000239679
18 *141:19 0.000316171
19 *141:12 0.000360385
20 *141:6 0.000171332
21 *496:A *495:A 0
22 *496:A *169:78 3.91898e-05
23 *497:A1 *501:A1 6.50586e-05
24 *503:A3 *503:A1 8.45896e-06
25 *503:A3 *503:A2 0.000414442
26 *503:A3 *145:83 5.56367e-05
27 *503:A3 *148:8 9.34404e-05
28 *503:A3 *148:16 1.5714e-05
29 *503:A3 *148:90 5.77352e-05
30 *505:A2 *505:A1 2.16355e-05
31 *507:D *507:A 1.40978e-05
32 *507:D *507:C 0.000160617
33 *507:D *509:A1 9.20254e-05
34 *507:D *509:B1 0
35 *507:D *556:C 0.000107496
36 *507:D *146:47 9.22013e-06
37 *507:D *148:24 0.000246684
38 *549:C *466:A 4.31703e-05
39 *549:C *466:C_N 4.58003e-05
40 *549:C *548:A 3.14978e-05
41 *549:C *549:B 0.000635999
42 *549:C *145:24 0.000326948
43 *141:12 *500:A1 0.000164843
44 *141:19 *515:A2 0.00067448
45 *141:19 *148:41 6.50727e-05
46 *141:23 *509:B1 0
47 *141:23 *551:D_N 5.79773e-05
48 *141:23 *148:24 0.000169108
49 *141:23 *150:20 0
50 *141:50 *145:35 0.000233425
51 *141:52 *495:A 0
52 *141:52 *145:24 0.000122083
53 *141:52 *145:35 2.09495e-05
54 *141:96 *145:35 8.62625e-06
55 *141:96 *145:46 0.000113456
56 *141:96 *145:83 0.00021046
57 *496:B *496:A 8.63056e-05
58 *496:B *141:50 4.3116e-06
59 *496:B *141:52 5.00082e-05
60 *497:A2 *497:A1 3.51034e-05
61 *498:B *497:A1 0
62 *500:B1 *141:6 1.65872e-05
63 *500:B1 *141:12 0.000111722
64 *502:A2 *141:50 0.000196638
65 *502:A2 *141:96 0.000113456
66 *503:B1 *503:A3 1.32509e-05
67 *550:C *549:C 7.22498e-05
68 *553:B *141:19 0.000111708
69 *53:10 *497:A1 0.000167076
70 *53:21 *141:50 5.68225e-06
71 *53:36 *141:96 2.31017e-05
72 *62:49 *503:A3 0.000339769
73 *62:49 *141:96 0.000149628
*RES
1 *590:Q *141:6 10.0234 
2 *141:6 *141:12 4.09924 
3 *141:12 *500:A2 9.3 
4 *141:12 *141:19 8.48785 
5 *141:19 *141:23 7.57775 
6 *141:23 *509:A3 13.8 
7 *141:23 *507:D 20.5107 
8 *141:19 *551:C 9.3 
9 *141:6 *141:48 4.5 
10 *141:48 *141:50 4.32351 
11 *141:50 *141:52 3.07775 
12 *141:52 *496:A 19.0273 
13 *141:52 *549:C 30.1005 
14 *141:50 *141:80 4.5 
15 *141:80 *497:A1 11.7113 
16 *141:80 *501:A2 9.3 
17 *141:48 *141:96 5.98452 
18 *141:96 *505:A2 14.5234 
19 *141:96 *503:A3 23.5218 
*END

*D_NET *142 0.00885319
*CONN
*I *538:B1 I *D sky130_fd_sc_hd__a21oi_1
*I *540:B I *D sky130_fd_sc_hd__nand4_1
*I *536:A1 I *D sky130_fd_sc_hd__a31oi_1
*I *541:A2 I *D sky130_fd_sc_hd__a41oi_1
*I *552:C I *D sky130_fd_sc_hd__nor4_1
*I *550:A I *D sky130_fd_sc_hd__nand4_1
*I *542:A1 I *D sky130_fd_sc_hd__a41oi_1
*I *537:A1 I *D sky130_fd_sc_hd__a21oi_1
*I *600:Q O *D sky130_fd_sc_hd__dfxtp_1
*CAP
1 *538:B1 0
2 *540:B 0
3 *536:A1 0.000458503
4 *541:A2 0
5 *552:C 0
6 *550:A 0.000150714
7 *542:A1 2.6903e-05
8 *537:A1 0.0002653
9 *600:Q 0.000383591
10 *142:72 0.00073127
11 *142:57 0.000799423
12 *142:47 0.000246467
13 *142:41 0.000655931
14 *142:37 0.000342048
15 *142:25 0.00023606
16 *142:10 0.000685829
17 *536:A1 *153:24 0
18 *537:A1 *538:A1 3.88213e-05
19 *542:A1 *153:99 5.13902e-05
20 *550:A *552:D 5.32951e-05
21 *142:10 *538:A1 7.09666e-06
22 *142:37 *540:A 2.07503e-05
23 *142:37 *153:51 7.36069e-05
24 *142:41 *541:A3 0.000160617
25 *142:41 *153:51 1.37669e-05
26 *142:47 *143:51 8.62625e-06
27 *142:57 *153:99 0.000418855
28 *142:72 *555:B 1.19721e-05
29 *537:A2 *537:A1 6.92705e-05
30 *539:A *142:37 6.0929e-05
31 *539:B *537:A1 0
32 *539:C *142:37 0.000109855
33 *541:A4 *142:47 6.08467e-05
34 *541:A4 *142:57 1.41689e-05
35 *541:B1 *536:A1 0
36 *542:A3 *542:A1 4.79289e-05
37 *542:A3 *142:57 9.25219e-05
38 *542:A4 *142:47 7.77309e-06
39 *543:B *142:57 6.50727e-05
40 *544:B *142:72 0.000217951
41 *544:C *142:57 2.15184e-05
42 *545:A2 *142:57 0.000164829
43 *546:C *536:A1 0.000120052
44 *546:C *142:47 9.6622e-05
45 *546:C *142:57 1.41976e-05
46 *547:A1 *537:A1 0.000228075
47 *547:A1 *142:10 0.000113534
48 *547:A2 *142:10 4.28856e-07
49 *557:A1 *142:72 8.1747e-05
50 *557:A2 *142:72 4.04121e-05
51 *600:D *142:37 6.50727e-05
52 *602:D *537:A1 7.37672e-05
53 *602:D *142:10 4.38671e-05
54 *603:D *550:A 0
55 *12:221 *536:A1 0.000195139
56 *51:130 *142:72 0.000508686
57 *51:187 *536:A1 0.000218017
58 *53:101 *536:A1 0
59 *77:18 *536:A1 2.16355e-05
60 *77:24 *536:A1 0.000242887
61 *77:24 *142:47 1.55462e-05
*RES
1 *600:Q *142:10 20.6529 
2 *142:10 *537:A1 21.0625 
3 *142:10 *142:25 5.2234 
4 *142:25 *142:37 6.39 
5 *142:37 *142:41 6.88721 
6 *142:41 *142:47 6.64014 
7 *142:47 *142:57 12.095 
8 *142:57 *542:A1 14.8015 
9 *142:57 *142:72 20.2218 
10 *142:72 *550:A 21.8252 
11 *142:72 *552:C 9.3 
12 *142:47 *541:A2 9.3 
13 *142:41 *536:A1 28.1515 
14 *142:37 *540:B 9.3 
15 *142:25 *538:B1 9.3 
*END

*D_NET *143 0.00517813
*CONN
*I *540:A I *D sky130_fd_sc_hd__nand4_1
*I *541:A1 I *D sky130_fd_sc_hd__a41oi_1
*I *542:B1 I *D sky130_fd_sc_hd__a41oi_1
*I *552:B I *D sky130_fd_sc_hd__nor4_1
*I *549:A I *D sky130_fd_sc_hd__nor4b_1
*I *601:Q O *D sky130_fd_sc_hd__dfxtp_1
*CAP
1 *540:A 9.00942e-05
2 *541:A1 0
3 *542:B1 9.8971e-05
4 *552:B 9.50563e-05
5 *549:A 7.20372e-05
6 *601:Q 0
7 *143:51 0.000326071
8 *143:14 0.000660251
9 *143:8 0.00120805
10 *143:4 0.000851893
11 *540:A *541:A3 1.15389e-05
12 *540:A *153:51 0.000111802
13 *542:B1 *555:B 0.000162677
14 *542:B1 *169:12 9.12416e-06
15 *542:B1 *169:22 0.000108446
16 *549:A *549:D_N 0.000174074
17 *552:B *549:D_N 0.000148144
18 *552:B *552:D 3.28433e-06
19 *552:B *144:20 1.3023e-05
20 *143:14 *549:D_N 4.88955e-05
21 *143:14 *169:22 5.92342e-05
22 *537:A2 *143:51 0.000196866
23 *541:A4 *540:A 6.08467e-05
24 *542:A4 *143:51 0.000235992
25 *545:A2 *143:51 2.90244e-05
26 *546:C *540:A 3.82228e-05
27 *546:C *143:51 1.55462e-05
28 *550:C *552:B 0
29 *554:A1 *552:B 0
30 *558:B *552:B 0
31 *601:CLK *143:8 2.57847e-05
32 *601:D *143:8 7.02539e-05
33 *608:CLK *143:14 2.81678e-06
34 *51:130 *542:B1 0.000162677
35 *140:12 *542:B1 3.92734e-05
36 *140:12 *143:14 1.87825e-05
37 *142:37 *540:A 2.07503e-05
38 *142:47 *143:51 8.62625e-06
*RES
1 *601:Q *143:4 9.3 
2 *143:4 *143:8 13.5424 
3 *143:8 *143:14 15.6531 
4 *143:14 *549:A 11.6872 
5 *143:14 *552:B 21.3778 
6 *143:8 *542:B1 17.8799 
7 *143:4 *143:51 15.8473 
8 *143:51 *541:A1 9.3 
9 *143:51 *540:A 12.2418 
*END

*D_NET *144 0.00595983
*CONN
*I *546:A I *D sky130_fd_sc_hd__or3_1
*I *545:B1 I *D sky130_fd_sc_hd__o21ai_0
*I *552:A I *D sky130_fd_sc_hd__nor4_1
*I *549:D_N I *D sky130_fd_sc_hd__nor4b_1
*I *602:Q O *D sky130_fd_sc_hd__dfxtp_1
*CAP
1 *546:A 0.000270319
2 *545:B1 0
3 *552:A 0
4 *549:D_N 0.00016773
5 *602:Q 0.000685999
6 *144:20 0.00150701
7 *144:10 0.00136345
8 *144:8 0.000980487
9 *546:A *538:A1 1.29275e-05
10 *546:A *153:28 3.18209e-05
11 *538:A2 *144:20 5.44817e-06
12 *542:A4 *546:A 0.0001297
13 *542:A4 *144:10 5.2092e-05
14 *542:A4 *144:20 4.51176e-05
15 *547:A1 *144:8 3.77539e-05
16 *549:A *549:D_N 0.000174074
17 *552:B *549:D_N 0.000148144
18 *552:B *144:20 1.3023e-05
19 *554:A1 *549:D_N 0
20 *558:B *549:D_N 0
21 *602:CLK *144:8 1.41181e-05
22 *602:CLK *144:20 0
23 *602:D *144:8 6.93853e-05
24 *77:24 *546:A 0.00015917
25 *136:61 *144:20 0
26 *136:87 *144:20 0
27 *140:69 *546:A 4.31539e-05
28 *143:14 *549:D_N 4.88955e-05
*RES
1 *602:Q *144:8 23.9517 
2 *144:8 *144:10 1.00149 
3 *144:10 *144:20 10.8725 
4 *144:20 *549:D_N 19.265 
5 *144:20 *552:A 13.8 
6 *144:10 *545:B1 13.8 
7 *144:8 *546:A 20.6473 
*END

*D_NET *145 0.0102447
*CONN
*I *503:A2 I *D sky130_fd_sc_hd__a31oi_1
*I *507:C I *D sky130_fd_sc_hd__and4_1
*I *505:A1 I *D sky130_fd_sc_hd__a21oi_1
*I *499:A I *D sky130_fd_sc_hd__nand2_1
*I *551:D_N I *D sky130_fd_sc_hd__nor4b_1
*I *509:A2 I *D sky130_fd_sc_hd__a31oi_1
*I *500:A1 I *D sky130_fd_sc_hd__a21oi_1
*I *501:A1 I *D sky130_fd_sc_hd__o21ai_0
*I *549:B I *D sky130_fd_sc_hd__nor4b_1
*I *591:Q O *D sky130_fd_sc_hd__dfxtp_1
*CAP
1 *503:A2 0.000193073
2 *507:C 0.000738132
3 *505:A1 0.000133369
4 *499:A 0
5 *551:D_N 0.000170278
6 *509:A2 0
7 *500:A1 0.000106116
8 *501:A1 2.46198e-05
9 *549:B 0.000317185
10 *591:Q 0.000588741
11 *145:85 0.000871501
12 *145:83 0.000299658
13 *145:54 0.000610171
14 *145:50 0.000457344
15 *145:46 0.000181918
16 *145:35 0.000274049
17 *145:24 0.000406228
18 *549:B *466:A 0.000111722
19 *549:B *466:C_N 0.000113968
20 *551:D_N *552:D 0
21 *551:D_N *150:20 0
22 *145:24 *495:A 0
23 *145:54 *515:A1 0.000200624
24 *145:54 *515:A2 6.50586e-05
25 *497:A1 *501:A1 6.50586e-05
26 *497:A2 *501:A1 0.000111708
27 *499:B *145:50 6.50727e-05
28 *499:B *145:54 2.40235e-05
29 *501:B1 *145:35 0.000120584
30 *502:A1 *145:50 5.04829e-06
31 *503:A3 *503:A2 0.000414442
32 *503:A3 *145:83 5.56367e-05
33 *504:B1 *503:A2 0.000328392
34 *505:A2 *505:A1 2.16355e-05
35 *507:D *507:C 0.000160617
36 *515:A3 *145:54 6.92705e-05
37 *515:B1 *145:54 6.36477e-05
38 *549:C *549:B 0.000635999
39 *549:C *145:24 0.000326948
40 *553:B *551:D_N 2.65851e-05
41 *595:CLK *505:A1 5.04829e-06
42 *595:CLK *507:C 0.000136557
43 *595:D *507:C 1.87611e-05
44 *51:29 *145:24 3.20069e-06
45 *51:29 *145:35 5.9387e-05
46 *51:29 *145:46 4.70005e-05
47 *51:29 *145:83 1.09738e-05
48 *51:44 *503:A2 3.88655e-05
49 *51:44 *145:83 0.000102374
50 *53:10 *501:A1 1.65872e-05
51 *62:49 *145:54 4.91225e-06
52 *123:8 *549:B 0.000510776
53 *141:12 *500:A1 0.000164843
54 *141:23 *551:D_N 5.79773e-05
55 *141:50 *145:35 0.000233425
56 *141:52 *145:24 0.000122083
57 *141:52 *145:35 2.09495e-05
58 *141:96 *145:35 8.62625e-06
59 *141:96 *145:46 0.000113456
60 *141:96 *145:83 0.00021046
*RES
1 *591:Q *549:B 30.9942 
2 *591:Q *145:24 19.5437 
3 *145:24 *501:A1 15.078 
4 *145:24 *145:35 4.73876 
5 *145:35 *500:A1 15.6326 
6 *145:35 *145:46 2.24725 
7 *145:46 *145:50 5.2234 
8 *145:50 *145:54 11.285 
9 *145:54 *509:A2 9.3 
10 *145:54 *551:D_N 22.5897 
11 *145:50 *499:A 9.3 
12 *145:46 *145:83 4.73876 
13 *145:83 *145:85 4.5 
14 *145:85 *505:A1 11.1326 
15 *145:85 *507:C 23.1651 
16 *145:83 *503:A2 21.8608 
*END

*D_NET *146 0.00694617
*CONN
*I *556:C I *D sky130_fd_sc_hd__nor4b_1
*I *507:B I *D sky130_fd_sc_hd__and4_1
*I *509:A1 I *D sky130_fd_sc_hd__a31oi_1
*I *504:A1 I *D sky130_fd_sc_hd__a21oi_1
*I *503:A1 I *D sky130_fd_sc_hd__a31oi_1
*I *505:B1 I *D sky130_fd_sc_hd__a21oi_1
*I *592:Q O *D sky130_fd_sc_hd__dfxtp_1
*CAP
1 *556:C 0.000570878
2 *507:B 0
3 *509:A1 6.88448e-05
4 *504:A1 0
5 *503:A1 0.000337632
6 *505:B1 0.000110935
7 *592:Q 0
8 *146:58 0.000570878
9 *146:47 0.000802817
10 *146:36 0.000836319
11 *146:6 0.000484615
12 *146:4 0.000138395
13 *503:A1 *148:8 8.89094e-05
14 *503:A1 *148:16 2.27135e-05
15 *503:A1 *148:90 2.24484e-05
16 *509:A1 *509:B1 1.2693e-05
17 *556:C *507:A 1.82679e-05
18 *556:C *556:D_N 2.82583e-05
19 *556:C *147:6 0.000219769
20 *146:47 *148:24 1.72464e-05
21 *503:A3 *503:A1 8.45896e-06
22 *504:B1 *503:A1 1.41976e-05
23 *507:D *509:A1 9.20254e-05
24 *507:D *556:C 0.000107496
25 *507:D *146:47 9.22013e-06
26 *508:A2_N *146:47 0.000152878
27 *510:B *509:A1 0.000174175
28 *510:B *146:47 0.000113374
29 *512:B1 *503:A1 4.09467e-05
30 *616:A *146:47 3.8122e-05
31 *12:104 *505:B1 0.000104731
32 *12:148 *556:C 0
33 *51:98 *556:C 7.09148e-05
34 *53:36 *503:A1 0.000301385
35 *53:36 *505:B1 0.000101118
36 *53:77 *146:47 0.000470599
37 *62:12 *556:C 2.65667e-05
38 *62:28 *146:47 4.72235e-05
39 *62:49 *503:A1 0.000233425
40 *101:14 *556:C 4.31539e-05
41 *139:16 *146:47 6.11359e-06
42 *139:28 *505:B1 0.000107496
43 *139:28 *146:6 6.08467e-05
44 *139:28 *146:36 0.000158371
45 *139:28 *146:47 0.000111708
*RES
1 *592:Q *146:4 9.3 
2 *146:4 *146:6 0.723396 
3 *146:6 *505:B1 21.41 
4 *146:6 *503:A1 28.9061 
5 *146:4 *146:36 1.8326 
6 *146:36 *504:A1 9.3 
7 *146:36 *146:47 18.0081 
8 *146:47 *509:A1 17.293 
9 *146:47 *146:58 4.5 
10 *146:58 *507:B 9.3 
11 *146:58 *556:C 34.4712 
*END

*D_NET *147 0.00348895
*CONN
*I *556:D_N I *D sky130_fd_sc_hd__nor4b_1
*I *508:B2 I *D sky130_fd_sc_hd__a2bb2oi_1
*I *507:A I *D sky130_fd_sc_hd__and4_1
*I *509:B1 I *D sky130_fd_sc_hd__a31oi_1
*I *593:Q O *D sky130_fd_sc_hd__dfxtp_1
*CAP
1 *556:D_N 0.000292847
2 *508:B2 0
3 *507:A 0.000192339
4 *509:B1 7.04521e-05
5 *593:Q 0.000886539
6 *147:10 0.000339087
7 *147:6 0.000669987
8 *509:B1 *150:20 6.31665e-05
9 *556:D_N *556:A 1.84293e-05
10 *556:D_N *556:B 6.12686e-06
11 *147:10 *150:20 5.01813e-05
12 *507:D *507:A 1.40978e-05
13 *507:D *509:B1 0
14 *509:A1 *509:B1 1.2693e-05
15 *510:B *509:B1 9.75356e-05
16 *510:B *147:10 0.000181416
17 *556:C *507:A 1.82679e-05
18 *556:C *556:D_N 2.82583e-05
19 *556:C *147:6 0.000219769
20 *593:CLK *147:6 3.82228e-05
21 *593:D *147:6 9.27623e-05
22 *51:98 *147:6 9.988e-06
23 *62:12 *147:10 7.50722e-05
24 *101:14 *556:D_N 0.000111708
25 *141:23 *509:B1 0
*RES
1 *593:Q *147:6 18.8971 
2 *147:6 *147:10 7.993 
3 *147:10 *509:B1 16.4625 
4 *147:10 *507:A 16.7659 
5 *147:6 *508:B2 9.3 
6 *593:Q *556:D_N 23.6397 
*END

*D_NET *148 0.00995151
*CONN
*I *517:A1 I *D sky130_fd_sc_hd__a21oi_1
*I *519:C I *D sky130_fd_sc_hd__nand4_1
*I *512:A1 I *D sky130_fd_sc_hd__a21oi_1
*I *511:A1 I *D sky130_fd_sc_hd__a21oi_1
*I *513:A I *D sky130_fd_sc_hd__nor2_1
*I *521:A2 I *D sky130_fd_sc_hd__a31oi_1
*I *551:B I *D sky130_fd_sc_hd__nor4b_1
*I *548:A I *D sky130_fd_sc_hd__lpflow_isobufsrc_1
*I *515:A2 I *D sky130_fd_sc_hd__a31oi_1
*I *594:Q O *D sky130_fd_sc_hd__dfxtp_1
*CAP
1 *517:A1 0
2 *519:C 0.000122187
3 *512:A1 5.20167e-05
4 *511:A1 1.69747e-05
5 *513:A 5.04022e-05
6 *521:A2 9.79709e-05
7 *551:B 0
8 *548:A 0.000182846
9 *515:A2 0.000325503
10 *594:Q 0
11 *148:99 0.000394269
12 *148:90 0.000498494
13 *148:70 6.73769e-05
14 *148:41 0.000204493
15 *148:24 0.000786603
16 *148:16 0.00121228
17 *148:8 0.000715377
18 *148:6 0.000214914
19 *515:A2 *149:16 7.48797e-05
20 *519:C *517:B1 2.41483e-05
21 *519:C *519:B 0.000861684
22 *521:A2 *521:A1 8.65358e-05
23 *548:A *548:SLEEP 0.000290644
24 *548:A *551:A 4.70104e-05
25 *548:A *149:16 0
26 *148:24 *149:8 3.58457e-05
27 *148:24 *149:16 5.90768e-05
28 *148:24 *149:45 6.26871e-05
29 *148:24 *149:60 1.19576e-05
30 *148:41 *149:16 4.33655e-05
31 *148:90 *517:B1 0
32 *148:90 *519:B 0
33 *148:99 *517:B1 7.68538e-06
34 *503:A1 *148:8 8.89094e-05
35 *503:A1 *148:16 2.27135e-05
36 *503:A1 *148:90 2.24484e-05
37 *503:A3 *148:8 9.34404e-05
38 *503:A3 *148:16 1.5714e-05
39 *503:A3 *148:90 5.77352e-05
40 *503:B1 *511:A1 6.08467e-05
41 *503:B1 *513:A 1.41853e-05
42 *507:D *148:24 0.000246684
43 *511:A2 *511:A1 1.65872e-05
44 *511:A2 *513:A 1.85136e-05
45 *511:B1 *513:A 1.09551e-05
46 *512:A2 *512:A1 5.04829e-06
47 *512:A2 *148:90 0
48 *512:A2 *148:99 0.000153932
49 *512:B1 *148:90 7.54281e-05
50 *513:B *513:A 0.000107496
51 *517:A2 *519:C 0.000749011
52 *518:C *148:90 0
53 *519:D *519:C 0.00011818
54 *549:C *548:A 3.14978e-05
55 *553:A *548:A 5.53934e-05
56 *553:B *148:41 1.92172e-05
57 *51:12 *548:A 0
58 *51:29 *515:A2 3.87866e-05
59 *53:36 *513:A 2.16355e-05
60 *53:62 *515:A2 3.68867e-05
61 *53:93 *148:16 8.93503e-05
62 *53:93 *148:24 0.00019244
63 *62:74 *148:24 4.69571e-05
64 *62:85 *148:24 3.3239e-06
65 *136:45 *548:A 0
66 *141:19 *515:A2 0.00067448
67 *141:19 *148:41 6.50727e-05
68 *141:23 *148:24 0.000169108
69 *145:54 *515:A2 6.50586e-05
70 *146:47 *148:24 1.72464e-05
*RES
1 *594:Q *148:6 13.8 
2 *148:6 *148:8 1.832 
3 *148:8 *148:16 8.7783 
4 *148:16 *148:24 18.7896 
5 *148:24 *515:A2 29.0645 
6 *148:24 *148:41 1.278 
7 *148:41 *548:A 25.0079 
8 *148:41 *551:B 9.3 
9 *148:16 *521:A2 16.1872 
10 *148:8 *148:70 4.5 
11 *148:70 *513:A 11.1567 
12 *148:70 *511:A1 10.0234 
13 *148:6 *148:90 10.0693 
14 *148:90 *512:A1 10.0234 
15 *148:90 *148:99 4.60562 
16 *148:99 *519:C 20.0304 
17 *148:99 *517:A1 9.3 
*END

*D_NET *149 0.00790868
*CONN
*I *519:B I *D sky130_fd_sc_hd__nand4_1
*I *517:B1 I *D sky130_fd_sc_hd__a21oi_1
*I *516:A1 I *D sky130_fd_sc_hd__a21oi_1
*I *521:A1 I *D sky130_fd_sc_hd__a31oi_1
*I *515:A1 I *D sky130_fd_sc_hd__a31oi_1
*I *551:A I *D sky130_fd_sc_hd__nor4b_1
*I *548:SLEEP I *D sky130_fd_sc_hd__lpflow_isobufsrc_1
*I *595:Q O *D sky130_fd_sc_hd__dfxtp_1
*CAP
1 *519:B 0.00058055
2 *517:B1 0.000119064
3 *516:A1 4.82581e-05
4 *521:A1 0.000111039
5 *515:A1 0.000152068
6 *551:A 1.76732e-05
7 *548:SLEEP 0.000160267
8 *595:Q 0
9 *149:71 0.000900879
10 *149:60 0.000567728
11 *149:45 0.000671134
12 *149:16 0.00054426
13 *149:8 0.000581965
14 *149:6 0.000305468
15 *512:A2 *517:B1 9.04224e-05
16 *512:A2 *519:B 4.3116e-06
17 *512:A2 *149:71 9.34224e-05
18 *515:A2 *149:16 7.48797e-05
19 *515:B1 *515:A1 6.36477e-05
20 *516:B1 *515:A1 7.14678e-05
21 *516:B1 *516:A1 1.69262e-05
22 *516:B1 *149:60 2.20702e-05
23 *517:A2 *517:B1 6.50586e-05
24 *519:C *517:B1 2.41483e-05
25 *519:C *519:B 0.000861684
26 *521:A2 *521:A1 8.65358e-05
27 *548:A *548:SLEEP 0.000290644
28 *548:A *551:A 4.70104e-05
29 *548:A *149:16 0
30 *550:D *548:SLEEP 4.86647e-05
31 *553:A *548:SLEEP 8.92568e-06
32 *553:B *548:SLEEP 6.31665e-05
33 *553:B *551:A 2.71542e-05
34 *553:B *149:16 3.99086e-06
35 *12:142 *521:A1 0.00041102
36 *12:142 *149:60 3.70748e-05
37 *53:93 *149:45 7.91408e-05
38 *62:85 *149:60 0
39 *136:45 *149:8 3.40703e-05
40 *136:45 *149:16 7.55711e-05
41 *136:45 *149:45 0.000109962
42 *136:45 *149:60 1.61148e-05
43 *136:45 *149:71 0
44 *145:54 *515:A1 0.000200624
45 *148:24 *149:8 3.58457e-05
46 *148:24 *149:16 5.90768e-05
47 *148:24 *149:45 6.26871e-05
48 *148:24 *149:60 1.19576e-05
49 *148:41 *149:16 4.33655e-05
50 *148:90 *517:B1 0
51 *148:90 *519:B 0
52 *148:99 *517:B1 7.68538e-06
*RES
1 *595:Q *149:6 13.8 
2 *149:6 *149:8 2.24725 
3 *149:8 *149:16 17.2352 
4 *149:16 *548:SLEEP 19.3693 
5 *149:16 *551:A 14.8015 
6 *149:8 *515:A1 19.5148 
7 *149:6 *149:45 7.64553 
8 *149:45 *521:A1 18.4056 
9 *149:45 *149:60 9.96776 
10 *149:60 *516:A1 10.0234 
11 *149:60 *149:71 10.0693 
12 *149:71 *517:B1 26.1887 
13 *149:71 *519:B 24.8138 
*END

*D_NET *150 0.00425918
*CONN
*I *520:A1 I *D sky130_fd_sc_hd__a22oi_1
*I *519:A I *D sky130_fd_sc_hd__nand4_1
*I *521:B1 I *D sky130_fd_sc_hd__a31oi_1
*I *552:D I *D sky130_fd_sc_hd__nor4_1
*I *550:B I *D sky130_fd_sc_hd__nand4_1
*I *596:Q O *D sky130_fd_sc_hd__dfxtp_1
*CAP
1 *520:A1 9.1597e-05
2 *519:A 0.000195388
3 *521:B1 0
4 *552:D 0.000252416
5 *550:B 0
6 *596:Q 8.29813e-05
7 *150:20 0.00078708
8 *150:14 0.00063373
9 *150:10 0.000659282
10 *150:6 0.000539406
11 *509:B1 *150:20 6.31665e-05
12 *520:B1 *520:A1 1.07248e-05
13 *520:B1 *150:20 0
14 *520:B2 *520:A1 1.45944e-05
15 *520:B2 *150:14 0
16 *520:B2 *150:20 0
17 *550:A *552:D 5.32951e-05
18 *550:C *552:D 3.43456e-05
19 *550:D *150:20 7.34948e-06
20 *551:D_N *552:D 0
21 *551:D_N *150:20 0
22 *552:B *552:D 3.28433e-06
23 *553:B *552:D 0
24 *554:A2 *552:D 4.97436e-05
25 *554:A2 *150:20 4.28856e-07
26 *593:D *150:20 0.000287646
27 *596:D *519:A 2.95757e-05
28 *596:D *150:10 6.08467e-05
29 *596:D *150:14 2.82537e-05
30 *597:CLK *520:A1 0
31 *603:D *552:D 0
32 *12:148 *150:20 8.61936e-05
33 *12:163 *150:20 0
34 *51:98 *520:A1 1.07248e-05
35 *62:12 *150:20 0.000118485
36 *62:74 *150:20 0
37 *62:85 *519:A 0
38 *71:10 *519:A 2.65831e-05
39 *71:10 *520:A1 1.47102e-05
40 *139:14 *519:A 0
41 *139:14 *150:14 3.08133e-05
42 *139:14 *150:20 3.635e-05
43 *141:23 *150:20 0
44 *147:10 *150:20 5.01813e-05
*RES
1 *596:Q *150:6 10.578 
2 *150:6 *150:10 9.66022 
3 *150:10 *150:14 2.98005 
4 *150:14 *150:20 18.4066 
5 *150:20 *550:B 9.3 
6 *150:20 *552:D 24.3168 
7 *150:14 *521:B1 13.8 
8 *150:10 *519:A 18.8469 
9 *150:6 *520:A1 20.5472 
*END

*D_NET *151 0.00272522
*CONN
*I *525:A1 I *D sky130_fd_sc_hd__a21oi_1
*I *464:A I *D sky130_fd_sc_hd__clkinv_1
*I *556:B I *D sky130_fd_sc_hd__nor4b_1
*I *597:Q O *D sky130_fd_sc_hd__dfxtp_1
*CAP
1 *525:A1 0
2 *464:A 3.45161e-05
3 *556:B 0.000249061
4 *597:Q 0.000415181
5 *151:14 0.000351283
6 *151:12 0.000482887
7 *556:B *556:A 0.00031328
8 *151:12 *463:A 0
9 *151:12 *556:A 0.000118166
10 *151:14 *556:A 0.000111722
11 *523:A *464:A 1.07248e-05
12 *523:B *464:A 6.96846e-05
13 *524:B *151:12 0.000156325
14 *527:A *151:12 0
15 *556:D_N *556:B 6.12686e-06
16 *51:187 *151:12 4.41269e-05
17 *53:101 *151:12 0.000238552
18 *74:10 *151:12 5.92342e-05
19 *121:21 *464:A 6.43474e-05
*RES
1 *597:Q *151:12 28.6114 
2 *151:12 *151:14 1.278 
3 *151:14 *556:B 14.6772 
4 *151:14 *464:A 19.7167 
5 *151:12 *525:A1 9.3 
*END

*D_NET *152 0.00309787
*CONN
*I *463:A I *D sky130_fd_sc_hd__clkinv_1
*I *529:B1 I *D sky130_fd_sc_hd__a21oi_1
*I *556:A I *D sky130_fd_sc_hd__nor4b_1
*I *598:Q O *D sky130_fd_sc_hd__dfxtp_1
*CAP
1 *463:A 0.00016171
2 *529:B1 0
3 *556:A 0.000117139
4 *598:Q 0.000566524
5 *152:12 0.000117139
6 *152:10 0.000728234
7 *523:A *152:10 3.67528e-06
8 *524:B *463:A 7.49694e-05
9 *525:A2 *556:A 0
10 *529:A1 *463:A 1.58706e-05
11 *556:B *556:A 0.00031328
12 *556:D_N *556:A 1.84293e-05
13 *598:D *152:10 0.000269795
14 *12:221 *152:10 0.000210077
15 *51:174 *556:A 0.000164333
16 *51:187 *556:A 1.92172e-05
17 *74:10 *463:A 5.68225e-06
18 *74:10 *152:10 1.90218e-05
19 *121:21 *463:A 4.06109e-05
20 *121:21 *152:10 2.22788e-05
21 *151:12 *463:A 0
22 *151:12 *556:A 0.000118166
23 *151:14 *556:A 0.000111722
*RES
1 *598:Q *152:10 23.5652 
2 *152:10 *152:12 4.5 
3 *152:12 *556:A 15.7623 
4 *152:12 *529:B1 9.3 
5 *152:10 *463:A 18.1235 
*END

*D_NET *153 0.00851847
*CONN
*I *542:A2 I *D sky130_fd_sc_hd__a41oi_1
*I *555:B I *D sky130_fd_sc_hd__nor2_1
*I *532:B1 I *D sky130_fd_sc_hd__o21ai_0
*I *533:A I *D sky130_fd_sc_hd__nor2_1
*I *536:A2 I *D sky130_fd_sc_hd__a31oi_1
*I *540:C I *D sky130_fd_sc_hd__nand4_1
*I *541:A3 I *D sky130_fd_sc_hd__a41oi_1
*I *538:A1 I *D sky130_fd_sc_hd__a21oi_1
*I *599:Q O *D sky130_fd_sc_hd__dfxtp_1
*CAP
1 *542:A2 0
2 *555:B 0.000190955
3 *532:B1 6.71435e-05
4 *533:A 0
5 *536:A2 0
6 *540:C 0
7 *541:A3 0.000255135
8 *538:A1 0.000306264
9 *599:Q 0.000428483
10 *153:99 0.000372788
11 *153:51 0.000115093
12 *153:28 0.000693661
13 *153:24 0.000747802
14 *153:12 0.000519227
15 *153:8 0.000612657
16 *530:B *153:24 6.08467e-05
17 *532:A2 *532:B1 2.5386e-05
18 *534:A *153:12 4.70005e-05
19 *534:B *153:24 6.30563e-05
20 *535:A1 *532:B1 6.79599e-05
21 *535:A1 *153:12 0.000242134
22 *535:A2 *153:24 2.41274e-06
23 *536:A1 *153:24 0
24 *537:A1 *538:A1 3.88213e-05
25 *538:A2 *538:A1 0.000530434
26 *540:A *541:A3 1.15389e-05
27 *540:A *153:51 0.000111802
28 *541:A4 *541:A3 0.000211478
29 *541:A4 *153:99 6.92705e-05
30 *541:B1 *153:99 0.000118166
31 *542:A1 *153:99 5.13902e-05
32 *542:A3 *555:B 6.50727e-05
33 *542:A3 *153:99 9.11837e-05
34 *542:A4 *555:B 0.000111722
35 *542:A4 *153:99 0.000159322
36 *542:B1 *555:B 0.000162677
37 *543:B *153:99 3.03173e-05
38 *544:C *153:99 0.000182929
39 *546:A *538:A1 1.29275e-05
40 *546:A *153:28 3.18209e-05
41 *557:A2 *555:B 6.50586e-05
42 *599:CLK *153:24 1.65239e-05
43 *599:CLK *153:28 0.000303003
44 *599:D *153:8 2.54062e-05
45 *599:D *153:12 4.3116e-06
46 *602:CLK *538:A1 8.41511e-06
47 *602:CLK *153:28 0.000157517
48 *602:D *538:A1 4.23622e-05
49 *51:130 *555:B 6.39306e-05
50 *51:130 *153:99 4.33655e-05
51 *51:187 *153:24 0.000113109
52 *53:127 *153:24 1.35473e-05
53 *53:134 *153:24 1.43848e-05
54 *77:18 *153:24 0.000133878
55 *77:24 *153:24 1.82696e-05
56 *77:24 *153:28 0
57 *136:87 *153:99 5.9807e-07
58 *142:10 *538:A1 7.09666e-06
59 *142:37 *153:51 7.36069e-05
60 *142:41 *541:A3 0.000160617
61 *142:41 *153:51 1.37669e-05
62 *142:57 *153:99 0.000418855
63 *142:72 *555:B 1.19721e-05
*RES
1 *599:Q *153:8 20.0694 
2 *153:8 *153:12 8.82351 
3 *153:12 *153:24 13.7896 
4 *153:24 *153:28 9.62408 
5 *153:28 *538:A1 22.946 
6 *153:28 *153:51 6.35672 
7 *153:51 *541:A3 12.2418 
8 *153:51 *540:C 9.3 
9 *153:24 *536:A2 13.8 
10 *153:12 *533:A 9.3 
11 *153:8 *532:B1 16.0472 
12 *541:A3 *153:99 27.5373 
13 *153:99 *555:B 15.0389 
14 *153:99 *542:A2 9.3 
*END

*D_NET *154 0.00693069
*CONN
*I *477:S0 I *D sky130_fd_sc_hd__mux4_2
*I *575:A2 I *D sky130_fd_sc_hd__a21oi_1
*I *568:S I *D sky130_fd_sc_hd__mux2i_1
*I *573:C I *D sky130_fd_sc_hd__nand3_1
*I *570:B I *D sky130_fd_sc_hd__xor2_1
*I *578:C I *D sky130_fd_sc_hd__nand4_1
*I *478:S0 I *D sky130_fd_sc_hd__mux4_2
*I *607:Q O *D sky130_fd_sc_hd__dfxtp_1
*CAP
1 *477:S0 0.000270159
2 *575:A2 0.000205369
3 *568:S 0.000103614
4 *573:C 0
5 *570:B 0
6 *578:C 0.000145244
7 *478:S0 0.000475284
8 *607:Q 0.000453833
9 *154:32 0.000374779
10 *154:28 0.000454055
11 *154:18 0.000993032
12 *154:12 0.000667
13 *154:10 0.000659202
14 *477:S0 *477:A2 2.52414e-06
15 *478:S0 *474:A0 5.2504e-06
16 *478:S0 *478:A0 0
17 *478:S0 *478:A3 1.79196e-05
18 *478:S0 *478:S1 0.000339723
19 *478:S0 *578:A 0
20 *575:A2 *575:A1 1.65078e-05
21 *578:C *478:S1 2.24484e-05
22 *154:18 *477:S1 1.79196e-05
23 *154:18 *155:12 7.46001e-05
24 *154:28 *477:S1 8.8567e-05
25 *154:28 *478:S1 6.36477e-05
26 *154:28 *155:52 5.08751e-05
27 *154:32 *478:S1 6.3657e-05
28 *479:A1 *477:S0 1.84293e-05
29 *537:A2 *575:A2 5.0715e-05
30 *568:A0 *154:18 0.000166733
31 *568:A1 *154:18 6.42677e-05
32 *569:B *154:18 0.000113185
33 *571:B2 *478:S0 1.44467e-05
34 *571:B2 *578:C 5.47736e-05
35 *571:B2 *154:28 0.000217951
36 *574:B2 *154:18 0.000137936
37 *576:C *575:A2 9.18471e-05
38 *576:C *154:10 2.99929e-05
39 *607:CLK *154:18 4.06401e-05
40 *607:CLK *154:28 8.07939e-05
41 *609:CLK *154:28 0.000113968
42 *613:A *477:S0 5.56461e-05
43 *12:289 *578:C 0
44 *12:312 *578:C 1.41307e-05
45 *107:26 *154:28 8.90486e-05
46 *136:65 *478:S0 0
47 *138:80 *154:28 1.09738e-05
*RES
1 *607:Q *154:10 20.9316 
2 *154:10 *154:12 4.5 
3 *154:12 *154:18 16.6146 
4 *154:18 *154:28 18.3376 
5 *154:28 *154:32 5.2234 
6 *154:32 *478:S0 11.315 
7 *154:32 *578:C 17.1859 
8 *154:28 *570:B 9.3 
9 *154:18 *573:C 13.8 
10 *154:12 *568:S 11.1567 
11 *154:10 *575:A2 19.9802 
12 *478:S0 *477:S0 6.65524 
*END

*D_NET *155 0.00752529
*CONN
*I *575:A1 I *D sky130_fd_sc_hd__a21oi_1
*I *571:A1 I *D sky130_fd_sc_hd__a22oi_1
*I *578:B I *D sky130_fd_sc_hd__nand4_1
*I *570:A I *D sky130_fd_sc_hd__xor2_1
*I *478:S1 I *D sky130_fd_sc_hd__mux4_2
*I *573:B I *D sky130_fd_sc_hd__nand3_1
*I *477:S1 I *D sky130_fd_sc_hd__mux4_2
*I *608:Q O *D sky130_fd_sc_hd__dfxtp_1
*CAP
1 *575:A1 0.000277607
2 *571:A1 0
3 *578:B 6.50223e-05
4 *570:A 0
5 *478:S1 0.00019219
6 *573:B 0
7 *477:S1 0.000394607
8 *608:Q 7.58907e-05
9 *155:52 0.000266628
10 *155:46 0.000322205
11 *155:40 0.000703459
12 *155:12 0.000527015
13 *155:10 0.000737724
14 *155:6 0.000438098
15 *477:S1 *477:A2 3.20069e-06
16 *477:S1 *477:A3 6.3657e-05
17 *477:S1 *156:14 0.000252342
18 *477:S1 *156:34 0.000120052
19 *478:S1 *474:A0 1.44467e-05
20 *478:S1 *163:10 2.652e-05
21 *155:10 *575:B1 0.000186445
22 *155:12 *575:B1 6.79599e-05
23 *155:12 *156:34 1.07248e-05
24 *155:12 *156:43 0.000179303
25 *155:46 *578:A 8.62625e-06
26 *155:52 *578:A 0.000170592
27 *478:S0 *478:S1 0.000339723
28 *537:B1 *575:A1 5.22654e-06
29 *568:A0 *155:10 0.000109859
30 *568:A0 *155:12 5.41227e-05
31 *568:A1 *575:A1 0.000106961
32 *568:A1 *155:6 5.0715e-05
33 *568:A1 *155:10 0
34 *571:A2 *155:40 1.51449e-05
35 *571:B2 *155:46 0.000183422
36 *571:B2 *155:52 0.000157906
37 *572:B *155:46 5.64929e-05
38 *574:A2 *155:40 0.000207266
39 *575:A2 *575:A1 1.65078e-05
40 *576:C *575:A1 7.14746e-05
41 *578:C *478:S1 2.24484e-05
42 *581:D *477:S1 0
43 *608:D *155:46 2.65017e-05
44 *12:289 *478:S1 7.84098e-05
45 *12:312 *578:B 6.08467e-05
46 *107:26 *478:S1 0.000158451
47 *107:26 *155:52 6.08467e-05
48 *107:35 *155:40 0.000202245
49 *108:27 *155:46 2.65831e-05
50 *108:38 *155:40 1.90594e-05
51 *108:38 *155:46 3.14978e-05
52 *136:87 *155:10 0
53 *138:69 *477:S1 0
54 *138:80 *477:S1 0
55 *154:18 *477:S1 1.79196e-05
56 *154:18 *155:12 7.46001e-05
57 *154:28 *477:S1 8.8567e-05
58 *154:28 *478:S1 6.36477e-05
59 *154:28 *155:52 5.08751e-05
60 *154:32 *478:S1 6.3657e-05
*RES
1 *608:Q *155:6 10.578 
2 *155:6 *155:10 7.993 
3 *155:10 *155:12 4.73876 
4 *155:12 *477:S1 25.6719 
5 *155:12 *573:B 13.8 
6 *155:10 *155:40 13.7354 
7 *155:40 *155:46 10.1015 
8 *155:46 *155:52 8.30115 
9 *155:52 *478:S1 26.5324 
10 *155:52 *570:A 9.3 
11 *155:46 *578:B 15.512 
12 *155:40 *571:A1 9.3 
13 *155:6 *575:A1 23.9043 
*END

*D_NET *156 0.00569826
*CONN
*I *575:B1 I *D sky130_fd_sc_hd__a21oi_1
*I *574:A1 I *D sky130_fd_sc_hd__a22oi_1
*I *573:A I *D sky130_fd_sc_hd__nand3_1
*I *479:S I *D sky130_fd_sc_hd__mux2_1
*I *578:A I *D sky130_fd_sc_hd__nand4_1
*I *609:Q O *D sky130_fd_sc_hd__dfxtp_1
*CAP
1 *575:B1 0.000278968
2 *574:A1 2.9737e-05
3 *573:A 0
4 *479:S 0
5 *578:A 0.000348657
6 *609:Q 0.000652245
7 *156:43 0.000385992
8 *156:34 0.000142519
9 *156:14 0.000660441
10 *156:8 0.00102926
11 *477:S1 *156:14 0.000252342
12 *477:S1 *156:34 0.000120052
13 *478:S0 *578:A 0
14 *479:A0 *578:A 7.48633e-05
15 *479:A0 *156:14 0.000132297
16 *537:A2 *575:B1 0.000114594
17 *569:B *575:B1 0.000152131
18 *569:B *156:34 9.89388e-06
19 *569:B *156:43 0.000176145
20 *571:B2 *578:A 1.36815e-05
21 *572:B *578:A 1.07248e-05
22 *574:A2 *574:A1 2.71158e-05
23 *576:C *575:B1 4.17531e-06
24 *581:CLK *156:14 0.000269642
25 *607:CLK *574:A1 6.38636e-05
26 *609:CLK *156:8 2.78496e-05
27 *609:D *156:8 1.87611e-05
28 *107:26 *578:A 4.10961e-05
29 *108:38 *574:A1 3.75603e-05
30 *136:65 *578:A 0
31 *136:87 *575:B1 0
32 *155:10 *575:B1 0.000186445
33 *155:12 *575:B1 6.79599e-05
34 *155:12 *156:34 1.07248e-05
35 *155:12 *156:43 0.000179303
36 *155:46 *578:A 8.62625e-06
37 *155:52 *578:A 0.000170592
*RES
1 *609:Q *156:8 23.3971 
2 *156:8 *156:14 15.0929 
3 *156:14 *578:A 28.1962 
4 *156:14 *479:S 9.3 
5 *156:8 *156:34 2.24725 
6 *156:34 *573:A 13.8 
7 *156:34 *156:43 3.493 
8 *156:43 *574:A1 15.1021 
9 *156:43 *575:B1 22.3083 
*END

*D_NET *157 0.00498715
*CONN
*I *566:A1 I *D sky130_fd_sc_hd__o21ai_0
*I *577:A I *D sky130_fd_sc_hd__nand2_1
*I *481:A I *D sky130_fd_sc_hd__nor4b_1
*I *482:A I *D sky130_fd_sc_hd__nand2_1
*I *610:Q O *D sky130_fd_sc_hd__dfxtp_1
*CAP
1 *566:A1 1.63474e-05
2 *577:A 0.000413162
3 *481:A 0.000296578
4 *482:A 2.77752e-05
5 *610:Q 0.000575815
6 *157:18 0.00075216
7 *157:14 0.000937175
8 *157:10 0.000688368
9 *481:A *466:C_N 1.61631e-05
10 *481:A *481:B 1.09551e-05
11 *481:A *481:D_N 0.000115584
12 *481:A *166:121 0
13 *566:A1 *169:38 0.000114594
14 *467:B *481:A 5.93461e-05
15 *482:B *481:A 9.75356e-05
16 *488:A1 *157:14 0
17 *488:B2 *577:A 0.000103349
18 *488:B2 *157:18 8.965e-06
19 *488:C1 *481:A 8.20492e-06
20 *560:A1 *481:A 2.9959e-05
21 *566:B1 *481:A 9.24241e-05
22 *567:B *566:A1 0.000114594
23 *588:CLK *157:18 2.16355e-05
24 *588:D *157:14 7.50872e-05
25 *588:D *157:18 1.87611e-05
26 *610:CLK *157:14 0
27 *610:D *157:10 0.000162139
28 *1:18 *157:10 0
29 *1:18 *157:14 0
30 *107:26 *577:A 9.80128e-05
31 *124:8 *481:A 4.27148e-05
32 *130:8 *481:A 2.41483e-05
33 *130:14 *157:10 3.37678e-05
34 *130:14 *157:14 1.77537e-06
35 *136:29 *481:A 0
36 *137:8 *157:18 3.00505e-05
*RES
1 *610:Q *157:10 23.8411 
2 *157:10 *157:14 6.74725 
3 *157:14 *157:18 6.29355 
4 *157:18 *482:A 9.939 
5 *157:18 *481:A 27.2893 
6 *157:14 *577:A 20.0545 
7 *157:10 *566:A1 15.078 
*END

*D_NET *158 0.00145497
*CONN
*I *477:A0 I *D sky130_fd_sc_hd__mux4_2
*I *469:A0 I *D sky130_fd_sc_hd__mux2_1
*I *580:Q O *D sky130_fd_sc_hd__dfxtp_1
*CAP
1 *477:A0 0.000315597
2 *469:A0 7.6694e-05
3 *580:Q 0.000286018
4 *158:12 0.000678308
5 *477:A0 *470:A0 0
6 *477:A0 *159:12 0
7 *469:S *469:A0 4.31703e-05
8 *470:S *477:A0 5.01375e-05
9 *470:S *158:12 0
10 *3:15 *158:12 0
11 *125:65 *469:A0 5.04829e-06
*RES
1 *580:Q *158:12 25.0135 
2 *158:12 *469:A0 11.1326 
3 *158:12 *477:A0 26.2537 
*END

*D_NET *159 0.00154441
*CONN
*I *477:A1 I *D sky130_fd_sc_hd__mux4_2
*I *470:A0 I *D sky130_fd_sc_hd__mux2_1
*I *581:Q O *D sky130_fd_sc_hd__dfxtp_1
*CAP
1 *477:A1 0
2 *470:A0 0.000180825
3 *581:Q 0.000288254
4 *159:12 0.000469078
5 *470:S *470:A0 3.22024e-05
6 *477:A0 *470:A0 0
7 *477:A0 *159:12 0
8 *479:A0 *159:12 0.000326398
9 *581:D *470:A0 8.42523e-05
10 *581:D *159:12 4.52324e-05
11 *4:17 *470:A0 0.000118166
*RES
1 *581:Q *159:12 22.3408 
2 *159:12 *470:A0 19.8168 
3 *159:12 *477:A1 13.8 
*END

*D_NET *160 0.00152254
*CONN
*I *477:A2 I *D sky130_fd_sc_hd__mux4_2
*I *471:A0 I *D sky130_fd_sc_hd__mux2_1
*I *582:Q O *D sky130_fd_sc_hd__dfxtp_1
*CAP
1 *477:A2 0.000166512
2 *471:A0 0.000439808
3 *582:Q 0
4 *160:6 0.00060632
5 *471:A0 *472:A0 7.34948e-06
6 *471:A0 *477:A3 0
7 *477:A2 *477:A3 0
8 *471:A1 *471:A0 3.14978e-05
9 *477:S0 *477:A2 2.52414e-06
10 *477:S1 *477:A2 3.20069e-06
11 *581:D *477:A2 0
12 *4:17 *471:A0 7.14746e-05
13 *125:47 *471:A0 1.00937e-05
14 *125:56 *471:A0 6.45664e-05
15 *138:12 *471:A0 3.98472e-05
16 *138:12 *477:A2 7.41203e-05
17 *138:69 *477:A2 5.22654e-06
*RES
1 *582:Q *160:6 13.8 
2 *160:6 *471:A0 22.4532 
3 *160:6 *477:A2 18.1558 
*END

*D_NET *161 0.00132259
*CONN
*I *477:A3 I *D sky130_fd_sc_hd__mux4_2
*I *472:A0 I *D sky130_fd_sc_hd__mux2_1
*I *583:Q O *D sky130_fd_sc_hd__dfxtp_1
*CAP
1 *477:A3 0.000324051
2 *472:A0 7.64969e-05
3 *583:Q 0.000152832
4 *161:10 0.000553381
5 *470:S *477:A3 0
6 *471:A0 *472:A0 7.34948e-06
7 *471:A0 *477:A3 0
8 *477:A2 *477:A3 0
9 *477:S1 *477:A3 6.3657e-05
10 *580:CLK *161:10 1.27193e-05
11 *4:17 *477:A3 0
12 *4:17 *161:10 0
13 *6:15 *161:10 3.44886e-05
14 *125:56 *472:A0 4.81015e-05
15 *125:65 *472:A0 4.95146e-05
*RES
1 *583:Q *161:10 17.1859 
2 *161:10 *472:A0 16.1872 
3 *161:10 *477:A3 21.3384 
*END

*D_NET *162 0.0030193
*CONN
*I *478:A0 I *D sky130_fd_sc_hd__mux4_2
*I *473:A0 I *D sky130_fd_sc_hd__mux2_1
*I *584:Q O *D sky130_fd_sc_hd__dfxtp_1
*CAP
1 *478:A0 0.00103132
2 *473:A0 0.000259552
3 *584:Q 0.00129087
4 *473:A0 *164:12 7.50872e-05
5 *478:A0 *478:A3 0
6 *478:S0 *478:A0 0
7 *587:CLK *478:A0 1.84293e-05
8 *2:17 *473:A0 0
9 *2:17 *478:A0 1.00937e-05
10 *125:25 *473:A0 3.60591e-05
11 *136:65 *478:A0 6.07581e-06
12 *138:12 *478:A0 4.26566e-05
13 *138:14 *478:A0 1.43848e-05
14 *138:16 *478:A0 0.000234779
*RES
1 *584:Q *473:A0 31.9586 
2 *584:Q *478:A0 44.7116 
*END

*D_NET *163 0.00258248
*CONN
*I *478:A1 I *D sky130_fd_sc_hd__mux4_2
*I *474:A0 I *D sky130_fd_sc_hd__mux2_1
*I *585:Q O *D sky130_fd_sc_hd__dfxtp_1
*CAP
1 *478:A1 0.000256255
2 *474:A0 0.000200851
3 *585:Q 0.000220564
4 *163:10 0.00067767
5 *474:A0 *476:A0 0.00017419
6 *474:A0 *478:A3 0.000167047
7 *471:A1 *474:A0 1.32373e-05
8 *474:S *474:A0 8.07794e-05
9 *478:S0 *474:A0 5.2504e-06
10 *478:S1 *474:A0 1.44467e-05
11 *478:S1 *163:10 2.652e-05
12 *488:A1 *163:10 9.62156e-06
13 *12:9 *474:A0 0.000663076
14 *12:9 *163:10 6.43474e-05
15 *12:289 *163:10 8.62625e-06
16 *138:51 *474:A0 0
*RES
1 *585:Q *163:10 17.604 
2 *163:10 *474:A0 25.1828 
3 *163:10 *478:A1 18.0439 
*END

*D_NET *164 0.00209185
*CONN
*I *478:A2 I *D sky130_fd_sc_hd__mux4_2
*I *475:A0 I *D sky130_fd_sc_hd__mux2_1
*I *586:Q O *D sky130_fd_sc_hd__dfxtp_1
*CAP
1 *478:A2 0.000381622
2 *475:A0 0.000143791
3 *586:Q 0.000383509
4 *164:12 0.000908922
5 read_en *164:12 2.84712e-06
6 tx *164:12 0
7 *473:A0 *164:12 7.50872e-05
8 *473:A1 *164:12 3.01634e-05
9 *475:A1 *475:A0 2.65831e-05
10 *585:CLK *164:12 0
11 *1:18 *164:12 0
12 *2:17 *164:12 0
13 *125:10 *164:12 1.82696e-05
14 *125:18 *164:12 0.000121054
*RES
1 *586:Q *164:12 28.7452 
2 *164:12 *475:A0 12.2418 
3 *164:12 *478:A2 17.2332 
*END

*D_NET *165 0.000823794
*CONN
*I *478:A3 I *D sky130_fd_sc_hd__mux4_2
*I *476:A0 I *D sky130_fd_sc_hd__mux2_1
*I *587:Q O *D sky130_fd_sc_hd__dfxtp_1
*CAP
1 *478:A3 8.0805e-05
2 *476:A0 0.000138222
3 *587:Q 0
4 *165:6 0.000219027
5 *474:A0 *476:A0 0.00017419
6 *474:A0 *478:A3 0.000167047
7 *476:A1 *476:A0 2.65831e-05
8 *478:A0 *478:A3 0
9 *478:S0 *478:A3 1.79196e-05
10 *138:51 *476:A0 0
*RES
1 *587:Q *165:6 13.8 
2 *165:6 *476:A0 17.6011 
3 *165:6 *478:A3 16.8778 
*END

*D_NET *2 0.00403244
*CONN
*P empty I
*I *483:A1 I *D sky130_fd_sc_hd__a21oi_1
*I *485:D I *D sky130_fd_sc_hd__or4_1
*CAP
1 empty 0.00128315
2 *483:A1 0
3 *485:D 0.000331884
4 *2:17 0.00161503
5 *485:D *483:B1 8.70611e-05
6 *485:D *484:B 2.86013e-06
7 *485:D *485:C 9.94284e-06
8 *485:D *168:12 7.97944e-05
9 *2:17 read_en 0
10 *2:17 tx 0.000265912
11 *2:17 *473:A0 0
12 *2:17 *473:A1 0
13 *2:17 *478:A0 1.00937e-05
14 *2:17 *484:B 1.56102e-05
15 *2:17 *584:D 0.000176469
16 *2:17 *587:CLK 4.03114e-05
17 *2:17 *587:D 7.02539e-05
18 *2:17 *3:15 5.48689e-06
19 *2:17 *6:15 0
20 *2:17 *138:16 3.85848e-05
21 *2:17 *164:12 0
*RES
1 empty *2:17 31.3973 
2 *2:17 *485:D 15.0389 
3 *2:17 *483:A1 9.3 
*END

*D_NET *3 0.00358707
*CONN
*P output_data[0] I
*I *469:A1 I *D sky130_fd_sc_hd__mux2_1
*CAP
1 output_data[0] 0.00105997
2 *469:A1 0
3 *3:15 0.00105997
4 *3:15 *470:S 3.31882e-05
5 *3:15 *580:D 0
6 *3:15 *4:17 0.00116744
7 *3:15 *6:15 0.000261016
8 *3:15 *158:12 0
9 *2:17 *3:15 5.48689e-06
*RES
1 output_data[0] *3:15 47.1192 
2 *3:15 *469:A1 9.3 
*END

*D_NET *4 0.00475348
*CONN
*P output_data[1] I
*I *470:A1 I *D sky130_fd_sc_hd__mux2_1
*CAP
1 output_data[1] 0.000985505
2 *470:A1 0
3 *4:17 0.000985505
4 *4:17 *470:A0 0.000118166
5 *4:17 *470:S 1.19856e-05
6 *4:17 *471:A0 7.14746e-05
7 *4:17 *476:A1 1.67473e-05
8 *4:17 *477:A3 0
9 *4:17 *583:D 4.47713e-05
10 *4:17 *6:15 0.00133862
11 *4:17 *12:9 1.326e-05
12 *4:17 *161:10 0
13 *3:15 *4:17 0.00116744
*RES
1 output_data[1] *4:17 44.2335 
2 *4:17 *470:A1 9.3 
*END

*D_NET *5 0.00155166
*CONN
*P output_data[2] I
*I *471:A1 I *D sky130_fd_sc_hd__mux2_1
*CAP
1 output_data[2] 0.000476729
2 *471:A1 0.000476729
3 *471:A1 *471:A0 3.14978e-05
4 *471:A1 *474:A0 1.32373e-05
5 *471:A1 *474:S 0.000179271
6 *471:A1 *582:D 3.14978e-05
7 *471:A1 *12:9 5.68719e-05
8 *471:A1 *125:47 0.000285824
9 *471:A1 *138:51 0
*RES
1 output_data[2] *471:A1 28.6015 
*END

*D_NET *6 0.00330746
*CONN
*P output_data[3] I
*I *472:A1 I *D sky130_fd_sc_hd__mux2_1
*CAP
1 output_data[3] 0.000819491
2 *472:A1 0
3 *6:15 0.000819491
4 *6:15 read_en 3.43458e-05
5 *6:15 *580:D 0
6 *6:15 *161:10 3.44886e-05
7 *2:17 *6:15 0
8 *3:15 *6:15 0.000261016
9 *4:17 *6:15 0.00133862
*RES
1 output_data[3] *6:15 41.5732 
2 *6:15 *472:A1 9.3 
*END

*D_NET *7 0.000800066
*CONN
*P output_data[4] I
*I *473:A1 I *D sky130_fd_sc_hd__mux2_1
*CAP
1 output_data[4] 0.000260511
2 *473:A1 0.000260511
3 *473:A1 read_en 7.3531e-05
4 *473:A1 *475:A1 5.48689e-06
5 *473:A1 *164:12 3.01634e-05
6 *1:18 *473:A1 0.000169863
7 *2:17 *473:A1 0
*RES
1 output_data[4] *473:A1 23.0448 
*END

*D_NET *8 0.000969312
*CONN
*P output_data[5] I
*I *474:A1 I *D sky130_fd_sc_hd__mux2_1
*CAP
1 output_data[5] 0.00039389
2 *474:A1 0.00039389
3 *474:A1 tx 9.08676e-05
4 *474:A1 *476:A1 8.73803e-05
5 *474:A1 *585:D 3.28416e-06
*RES
1 output_data[5] *474:A1 21.4662 
*END

*D_NET *9 0.00190242
*CONN
*P output_data[6] I
*I *475:A1 I *D sky130_fd_sc_hd__mux2_1
*CAP
1 output_data[6] 0.000703005
2 *475:A1 0.000703005
3 *475:A1 *475:A0 2.65831e-05
4 *475:A1 *584:D 9.60216e-05
5 *475:A1 *586:D 0
6 *475:A1 *137:18 0
7 *473:A1 *475:A1 5.48689e-06
8 *1:18 *475:A1 0.000368314
*RES
1 output_data[6] *475:A1 42.5063 
*END

*D_NET *10 0.0012788
*CONN
*P output_data[7] I
*I *476:A1 I *D sky130_fd_sc_hd__mux2_1
*CAP
1 output_data[7] 0.000328136
2 *476:A1 0.000328136
3 *476:A1 tx 0
4 *476:A1 *476:A0 2.65831e-05
5 *476:A1 *585:D 0.000148144
6 *476:A1 *12:9 7.90704e-05
7 *476:A1 *125:25 0.0002646
8 *474:A1 *476:A1 8.73803e-05
9 *4:17 *476:A1 1.67473e-05
*RES
1 output_data[7] *476:A1 24.9247 
*END

*D_NET *11 0.00302673
*CONN
*P read_en O
*I *489:B1 I *D sky130_fd_sc_hd__o21ai_0
*I *589:Q O *D sky130_fd_sc_hd__dfxtp_1
*CAP
1 read_en 0.00122153
2 *489:B1 0.000145329
3 *589:Q 0.00136686
4 read_en *586:D 9.71182e-06
5 read_en *137:24 7.25324e-06
6 read_en *137:26 4.71461e-05
7 read_en *164:12 2.84712e-06
8 *489:B1 *589:D 0
9 *489:B1 *137:26 0.00011818
10 *473:A1 read_en 7.3531e-05
11 *2:17 read_en 0
12 *6:15 read_en 3.43458e-05
*RES
1 *589:Q read_en 33.6674 
2 *589:Q *489:B1 31.5405 
*END

*D_NET *12 0.0295052
*CONN
*P rst I
*I *576:A I *D sky130_fd_sc_hd__nor3_1
*I *569:A I *D sky130_fd_sc_hd__nor2_1
*I *572:A I *D sky130_fd_sc_hd__nor2_1
*I *579:B1 I *D sky130_fd_sc_hd__a21oi_1
*I *560:B1 I *D sky130_fd_sc_hd__a31oi_1
*I *486:B1 I *D sky130_fd_sc_hd__a31oi_1
*I *565:B1 I *D sky130_fd_sc_hd__a21oi_1
*I *502:B1 I *D sky130_fd_sc_hd__a21oi_1
*I *531:A I *D sky130_fd_sc_hd__nor3_1
*I *547:B1 I *D sky130_fd_sc_hd__a21oi_1
*I *539:A I *D sky130_fd_sc_hd__nor3_1
*I *535:B1 I *D sky130_fd_sc_hd__a21oi_1
*I *526:C1 I *D sky130_fd_sc_hd__a211oi_1
*I *522:A I *D sky130_fd_sc_hd__nor3_1
*I *544:A I *D sky130_fd_sc_hd__nor3_1
*I *558:A I *D sky130_fd_sc_hd__nor2_1
*I *510:A I *D sky130_fd_sc_hd__nor3_1
*I *518:A I *D sky130_fd_sc_hd__nor3_1
*I *514:A I *D sky130_fd_sc_hd__nor3_1
*I *506:A I *D sky130_fd_sc_hd__nor3_1
*I *498:A I *D sky130_fd_sc_hd__nor2_1
*I *563:A I *D sky130_fd_sc_hd__nor2_1
*I *490:B1 I *D sky130_fd_sc_hd__a21oi_1
*I *468:A I *D sky130_fd_sc_hd__nor2_1
*CAP
1 rst 0.000533121
2 *576:A 0.000104375
3 *569:A 2.06324e-05
4 *572:A 1.7722e-05
5 *579:B1 7.35482e-05
6 *560:B1 0
7 *486:B1 0
8 *565:B1 0
9 *502:B1 3.71419e-05
10 *531:A 0
11 *547:B1 9.8652e-05
12 *539:A 0.000217888
13 *535:B1 0
14 *526:C1 2.08175e-05
15 *522:A 6.9883e-05
16 *544:A 0.000605679
17 *558:A 0.000124273
18 *510:A 0
19 *518:A 0
20 *514:A 4.17011e-05
21 *506:A 0
22 *498:A 2.64699e-05
23 *563:A 0
24 *490:B1 0.00034802
25 *468:A 0
26 *12:321 0.000556869
27 *12:312 0.000674187
28 *12:289 0.000614698
29 *12:230 0.000352193
30 *12:221 0.000434629
31 *12:213 0.00086007
32 *12:196 0.00133126
33 *12:163 0.0012974
34 *12:148 0.000862516
35 *12:142 0.0017926
36 *12:127 0.000987009
37 *12:104 0.000621708
38 *12:93 0.00029063
39 *12:89 0.00041896
40 *12:74 0.000508139
41 *12:65 0.00080483
42 *12:54 0.000933671
43 *12:52 0.000180147
44 *12:44 0.000465085
45 *12:32 0.000581803
46 *12:17 0.0010333
47 *12:9 0.0015861
48 *490:B1 *489:A1 0
49 *490:B1 *565:A2 3.01634e-05
50 *490:B1 *606:D 0
51 *490:B1 *168:35 0
52 *498:A *498:B 2.65667e-05
53 *514:A *513:B 2.51527e-05
54 *514:A *514:C 1.19721e-05
55 *522:A *522:B 0.000118796
56 *522:A *522:C 3.66041e-05
57 *539:A *535:A2 1.44467e-05
58 *539:A *537:B1 0.000227918
59 *539:A *547:A1 0.000130134
60 *539:A *600:D 0.000123582
61 *539:A *142:37 6.0929e-05
62 *544:A *494:A 1.65872e-05
63 *544:A *494:B 0.000266832
64 *544:A *542:A3 7.13234e-05
65 *544:A *544:C 7.97944e-05
66 *547:B1 *535:A1 7.86847e-05
67 *547:B1 *535:A2 9.2346e-06
68 *547:B1 *537:B1 9.25219e-05
69 *547:B1 *602:D 2.41274e-06
70 *558:A *558:B 3.5534e-06
71 *558:A *603:D 9.34724e-05
72 *558:A *52:10 6.52187e-05
73 *558:A *101:14 3.71324e-05
74 *579:B1 *567:B 0
75 *579:B1 *579:A2 6.56933e-05
76 *579:B1 *107:12 2.65667e-05
77 *579:B1 *108:12 0.000140001
78 *579:B1 *169:36 0
79 *12:9 *474:A0 0.000663076
80 *12:9 *585:D 0
81 *12:9 *587:D 2.69064e-05
82 *12:9 *163:10 6.43474e-05
83 *12:17 *488:A1 0.000108543
84 *12:17 *585:CLK 2.65831e-05
85 *12:17 *585:D 0.000171639
86 *12:17 *125:10 0.000115615
87 *12:32 *468:B 0.00011818
88 *12:32 *484:A 5.68225e-06
89 *12:32 *488:B1 6.10852e-05
90 *12:32 *488:C1 8.14875e-05
91 *12:32 *560:A3 0
92 *12:32 *604:D 3.55859e-05
93 *12:32 *125:10 1.41291e-05
94 *12:32 *137:18 0.000324166
95 *12:32 *166:23 0
96 *12:44 *460:A 0.000162584
97 *12:44 *462:A 5.04829e-06
98 *12:44 *486:A1 0.000128001
99 *12:44 *560:A1 0.000111708
100 *12:44 *560:A2 0.000171273
101 *12:44 *564:A3 1.09738e-05
102 *12:44 *612:A 6.26225e-05
103 *12:44 *119:10 4.57241e-06
104 *12:44 *136:29 1.14727e-05
105 *12:44 *137:8 0.000182258
106 *12:44 *166:23 0.000207266
107 *12:44 *168:35 2.95757e-05
108 *12:52 *486:A1 3.24735e-05
109 *12:52 *559:A1 6.08467e-05
110 *12:52 *565:A1 0.000233941
111 *12:52 *606:D 1.41976e-05
112 *12:65 *460:A 0
113 *12:65 *486:A3 0
114 *12:65 *496:B 0
115 *12:65 *563:B 5.04734e-05
116 *12:65 *565:A2 1.2601e-05
117 *12:65 *604:D 0
118 *12:65 *605:D 0
119 *12:65 *606:D 0
120 *12:65 *166:93 0
121 *12:65 *169:67 0
122 *12:65 *169:78 0
123 *12:74 *496:B 0
124 *12:74 *497:B1 0.000137892
125 *12:74 *591:CLK 0
126 *12:74 *591:D 5.66868e-06
127 *12:89 *590:D 4.47578e-05
128 *12:89 *591:CLK 0
129 *12:89 *591:D 0.000106255
130 *12:89 *139:32 0
131 *12:93 *591:D 8.52802e-05
132 *12:93 *53:36 6.14273e-05
133 *12:104 *505:B1 0.000104731
134 *12:104 *506:B 0.000248745
135 *12:104 *512:B1 8.62625e-06
136 *12:104 *53:36 0.000108364
137 *12:127 *503:B1 9.80242e-07
138 *12:127 *504:B1 5.92342e-05
139 *12:127 *511:A2 3.31745e-05
140 *12:127 *512:A2 1.18938e-05
141 *12:127 *512:B1 0.000111708
142 *12:127 *513:B 3.07726e-05
143 *12:127 *518:B 8.34681e-05
144 *12:127 *518:C 3.82198e-05
145 *12:127 *595:D 8.62625e-06
146 *12:142 *516:B1 0.000236291
147 *12:142 *518:B 2.89877e-05
148 *12:142 *518:C 4.30017e-06
149 *12:142 *521:A1 0.00041102
150 *12:142 *522:C 4.42142e-05
151 *12:142 *149:60 3.70748e-05
152 *12:148 *520:B1 0
153 *12:148 *556:C 0
154 *12:148 *593:D 0.00028913
155 *12:148 *150:20 8.61936e-05
156 *12:163 *603:D 0
157 *12:163 *52:10 0
158 *12:163 *150:20 0
159 *12:196 *522:B 0.000225011
160 *12:196 *526:B1 6.28701e-05
161 *12:196 *51:98 5.79795e-06
162 *12:196 *51:109 0.000153788
163 *12:196 *71:25 1.04187e-05
164 *12:196 *71:34 7.12286e-06
165 *12:213 *524:B 0.000228035
166 *12:213 *525:B1 6.08467e-05
167 *12:213 *526:A1 1.28832e-05
168 *12:213 *531:C 0.000171273
169 *12:213 *53:93 1.71784e-05
170 *12:213 *53:97 3.31745e-05
171 *12:213 *53:127 4.00156e-05
172 *12:213 *71:34 2.41274e-06
173 *12:221 *531:B 4.27003e-05
174 *12:221 *536:A1 0.000195139
175 *12:221 *598:D 5.72879e-05
176 *12:221 *599:D 2.41274e-06
177 *12:221 *51:187 0
178 *12:221 *53:101 0
179 *12:221 *152:10 0.000210077
180 *12:230 *599:D 7.92757e-06
181 *12:289 tx 0
182 *12:289 *478:S1 7.84098e-05
183 *12:289 *571:B2 0
184 *12:289 *578:C 0
185 *12:289 *579:A1 3.34802e-05
186 *12:289 *579:A2 2.95757e-05
187 *12:289 *107:12 1.32509e-05
188 *12:289 *163:10 8.62625e-06
189 *12:289 *169:30 0
190 *12:312 *578:B 6.08467e-05
191 *12:312 *578:C 1.41307e-05
192 *12:312 *579:A2 0.000263184
193 *12:312 *608:D 3.08745e-05
194 *12:312 *108:12 1.65872e-05
195 *12:321 *569:B 6.3657e-05
196 *12:321 *574:B2 4.81015e-05
197 *12:321 *607:D 2.99287e-05
198 *471:A1 *12:9 5.68719e-05
199 *476:A1 *12:9 7.90704e-05
200 *4:17 *12:9 1.326e-05
*RES
1 rst *12:9 17.807 
2 *12:9 *12:17 18.5821 
3 *12:17 *468:A 9.3 
4 *12:17 *12:32 18.7865 
5 *12:32 *12:44 20.0645 
6 *12:44 *12:52 6.34177 
7 *12:52 *12:54 4.5 
8 *12:54 *490:B1 22.6913 
9 *12:54 *12:65 13.8743 
10 *12:65 *563:A 13.8 
11 *12:65 *12:74 6.81502 
12 *12:74 *498:A 14.5234 
13 *12:74 *12:89 12.1778 
14 *12:89 *12:93 8.40826 
15 *12:93 *506:A 13.8 
16 *12:93 *12:104 10.8998 
17 *12:104 *514:A 10.6021 
18 *12:104 *12:127 16.642 
19 *12:127 *518:A 9.3 
20 *12:127 *12:142 14.4197 
21 *12:142 *12:148 17.8913 
22 *12:148 *510:A 9.3 
23 *12:148 *12:163 19.7645 
24 *12:163 *558:A 23.0388 
25 *12:163 *544:A 19.4758 
26 *12:142 *522:A 12.1212 
27 *12:142 *12:196 14.058 
28 *12:196 *526:C1 9.87872 
29 *12:196 *12:213 10.3928 
30 *12:213 *12:221 20.1447 
31 *12:221 *535:B1 9.3 
32 *12:221 *12:230 5.2234 
33 *12:230 *539:A 22.2422 
34 *12:230 *547:B1 16.9341 
35 *12:213 *531:A 9.3 
36 *12:89 *502:B1 10.0234 
37 *12:52 *565:B1 9.3 
38 *12:44 *486:B1 9.3 
39 *12:32 *560:B1 9.3 
40 *12:9 *12:289 12.5608 
41 *12:289 *579:B1 12.7723 
42 *12:289 *12:312 6.9446 
43 *12:312 *572:A 9.87872 
44 *12:312 *12:321 10.1517 
45 *12:321 *569:A 9.87872 
46 *12:321 *576:A 11.6872 
*END

*D_NET *166 0.00890929
*CONN
*I *481:C I *D sky130_fd_sc_hd__nor4b_1
*I *466:B I *D sky130_fd_sc_hd__nor3b_1
*I *561:A2 I *D sky130_fd_sc_hd__a31oi_1
*I *491:A I *D sky130_fd_sc_hd__lpflow_isobufsrc_1
*I *480:C I *D sky130_fd_sc_hd__nor3_1
*I *465:B I *D sky130_fd_sc_hd__nor2_1
*I *485:C I *D sky130_fd_sc_hd__or4_1
*I *489:A2 I *D sky130_fd_sc_hd__o21ai_0
*I *564:A2 I *D sky130_fd_sc_hd__o31ai_1
*I *559:B1 I *D sky130_fd_sc_hd__o21ai_0
*I *486:A3 I *D sky130_fd_sc_hd__a31oi_1
*I *604:Q O *D sky130_fd_sc_hd__dfxtp_1
*CAP
1 *481:C 1.86953e-05
2 *466:B 0.000107932
3 *561:A2 0.000238179
4 *491:A 3.65759e-05
5 *480:C 5.99159e-05
6 *465:B 8.21951e-06
7 *485:C 9.79608e-05
8 *489:A2 0.000327688
9 *564:A2 0.000232828
10 *559:B1 0
11 *486:A3 0.000165954
12 *604:Q 0.000192944
13 *166:125 0.000415783
14 *166:121 0.000163727
15 *166:108 0.000210407
16 *166:93 0.00035133
17 *166:51 0.000541569
18 *166:38 0.000383958
19 *166:36 0.000259178
20 *166:23 0.000413665
21 *166:4 0.000363871
22 *465:B *465:A 6.3657e-05
23 *466:B *466:A 0.00020385
24 *466:B *495:A 0
25 *480:C *167:10 1.87469e-05
26 *480:C *167:12 3.20069e-06
27 *480:C *168:64 0.000114594
28 *480:C *168:78 3.93117e-06
29 *480:C *169:54 0.000118792
30 *481:C *168:91 0.000113968
31 *485:C *483:B1 0.000218562
32 *485:C *168:12 6.92705e-05
33 *486:A3 *460:A 3.9739e-05
34 *486:A3 *168:35 9.34396e-06
35 *491:A *167:76 2.65667e-05
36 *491:A *168:91 0
37 *561:A2 *495:A 4.17007e-05
38 *561:A2 *561:A3 2.41274e-06
39 *564:A2 *465:A 2.96129e-05
40 *564:A2 *564:A1 7.32024e-06
41 *564:A2 *167:27 1.777e-05
42 *166:23 *462:A 7.92757e-06
43 *166:23 *167:12 0.00014041
44 *166:36 *167:12 1.71442e-05
45 *166:38 *465:A 2.91008e-06
46 *166:51 *465:A 9.94284e-06
47 *166:93 *460:A 7.86847e-05
48 *166:93 *462:A 1.2693e-05
49 *166:93 *168:64 0.000311249
50 *166:93 *169:67 3.46062e-05
51 *166:108 *167:10 3.10924e-05
52 *166:108 *168:78 4.09277e-05
53 *166:121 *481:B 3.01683e-06
54 *166:121 *481:D_N 1.92336e-05
55 *166:121 *491:SLEEP 6.36477e-05
56 *166:121 *167:76 7.14723e-05
57 *166:121 *168:91 0.000124911
58 *166:125 *466:A 0.000144546
59 *480:B *166:93 9.97706e-05
60 *481:A *166:121 0
61 *483:A2 *489:A2 1.44467e-05
62 *483:A2 *166:51 0.000109921
63 *484:B *485:C 2.57847e-05
64 *485:D *485:C 9.94284e-06
65 *490:A1 *489:A2 0.000177162
66 *490:A1 *166:51 1.65078e-05
67 *490:A2 *489:A2 0.000122378
68 *560:A3 *166:23 7.50872e-05
69 *560:A3 *166:36 4.48292e-06
70 *561:B1 *561:A2 6.50727e-05
71 *561:B1 *166:108 1.77537e-06
72 *562:A3 *491:A 2.65667e-05
73 *562:A3 *166:121 1.88152e-05
74 *562:B1 *561:A2 6.08467e-05
75 *564:A3 *564:A2 0.000275256
76 *565:A2 *486:A3 1.07248e-05
77 *604:D *486:A3 5.07314e-05
78 *604:D *166:23 7.34948e-06
79 *12:32 *166:23 0
80 *12:44 *166:23 0.000207266
81 *12:65 *486:A3 0
82 *12:65 *166:93 0
83 *49:21 *561:A2 0.000107496
84 *117:8 *166:93 6.08467e-05
85 *118:10 *166:93 6.50586e-05
86 *118:10 *166:108 1.32509e-05
87 *119:10 *166:23 0.000107496
88 *130:8 *481:C 4.33655e-05
89 *130:8 *166:121 1.61631e-05
90 *134:25 *166:36 0.000122083
91 *134:25 *166:51 2.69064e-05
92 *136:29 *466:B 2.85807e-05
93 *136:29 *166:125 5.9708e-05
94 *136:45 *466:B 7.06125e-05
95 *137:24 *489:A2 0
*RES
1 *604:Q *166:4 9.3 
2 *166:4 *486:A3 22.6558 
3 *166:4 *166:23 10.6589 
4 *166:23 *559:B1 13.8 
5 *166:23 *166:36 9.28761 
6 *166:36 *166:38 0.988641 
7 *166:38 *564:A2 15.2921 
8 *166:38 *166:51 8.4405 
9 *166:51 *489:A2 23.5624 
10 *166:51 *485:C 17.2964 
11 *166:36 *465:B 10.0234 
12 *604:Q *166:93 29.9288 
13 *166:93 *480:C 16.0795 
14 *166:93 *166:108 7.1625 
15 *166:108 *491:A 10.6021 
16 *166:108 *166:121 3.52053 
17 *166:121 *166:125 7.1625 
18 *166:125 *561:A2 19.5148 
19 *166:125 *466:B 18.1235 
20 *166:121 *481:C 10.578 
*END

*D_NET *167 0.0079685
*CONN
*I *481:D_N I *D sky130_fd_sc_hd__nor4b_1
*I *466:A I *D sky130_fd_sc_hd__nor3b_1
*I *461:A I *D sky130_fd_sc_hd__clkinv_1
*I *486:A2 I *D sky130_fd_sc_hd__a31oi_1
*I *465:A I *D sky130_fd_sc_hd__nor2_1
*I *489:A1 I *D sky130_fd_sc_hd__o21ai_0
*I *564:A1 I *D sky130_fd_sc_hd__o31ai_1
*I *485:B I *D sky130_fd_sc_hd__or4_1
*I *605:Q O *D sky130_fd_sc_hd__dfxtp_1
*CAP
1 *481:D_N 0.000312088
2 *466:A 0.000251181
3 *461:A 9.36721e-06
4 *486:A2 0.000199968
5 *465:A 0.000168258
6 *489:A1 0.00028138
7 *564:A1 6.39532e-05
8 *485:B 0.000100233
9 *605:Q 0.000208973
10 *167:76 0.000786824
11 *167:27 0.000474718
12 *167:25 0.000297643
13 *167:14 0.00014758
14 *167:12 0.000474989
15 *167:10 0.000324274
16 *167:6 0.000519761
17 *461:A *168:64 6.50586e-05
18 *461:A *169:54 6.50586e-05
19 *466:A *495:A 0
20 *466:A *168:78 3.37943e-05
21 *466:A *169:78 0
22 *485:B *168:12 0
23 *485:B *168:26 0
24 *489:A1 *168:12 3.04523e-05
25 *489:A1 *168:26 3.9739e-05
26 *489:A1 *168:35 5.66868e-06
27 *465:B *465:A 6.3657e-05
28 *466:B *466:A 0.00020385
29 *467:B *481:D_N 5.05252e-05
30 *480:C *167:10 1.87469e-05
31 *480:C *167:12 3.20069e-06
32 *481:A *481:D_N 0.000115584
33 *483:A2 *465:A 7.98425e-06
34 *486:A1 *167:10 2.15656e-05
35 *486:A1 *167:12 9.57015e-05
36 *490:A1 *485:B 5.22654e-06
37 *490:A1 *489:A1 0
38 *490:B1 *489:A1 0
39 *491:A *167:76 2.65667e-05
40 *549:B *466:A 0.000111722
41 *549:C *466:A 4.31703e-05
42 *560:A3 *167:12 0
43 *561:A1 *466:A 0
44 *562:A1 *167:6 2.16355e-05
45 *562:A3 *167:6 1.59527e-05
46 *562:A3 *167:76 6.12686e-06
47 *562:B1 *466:A 0
48 *563:B *167:6 3.62662e-06
49 *564:A2 *465:A 2.96129e-05
50 *564:A2 *564:A1 7.32024e-06
51 *564:A2 *167:27 1.777e-05
52 *564:A3 *485:B 5.56367e-05
53 *564:A3 *167:12 7.15574e-05
54 *564:A3 *167:14 8.89094e-05
55 *564:A3 *167:27 0.000115615
56 *565:A1 *486:A2 0.000317693
57 *565:A2 *564:A1 6.50586e-05
58 *565:A2 *167:27 0.00011818
59 *49:21 *466:A 0.000144546
60 *118:10 *167:10 7.14746e-05
61 *119:10 *167:12 0.000116971
62 *130:8 *481:D_N 0.000482508
63 *134:25 *485:B 7.06474e-05
64 *134:25 *167:12 3.20069e-06
65 *134:25 *167:14 3.92275e-05
66 *136:29 *466:A 1.75625e-05
67 *136:29 *167:12 2.24571e-05
68 *166:23 *167:12 0.00014041
69 *166:36 *167:12 1.71442e-05
70 *166:38 *465:A 2.91008e-06
71 *166:51 *465:A 9.94284e-06
72 *166:108 *167:10 3.10924e-05
73 *166:121 *481:D_N 1.92336e-05
74 *166:121 *167:76 7.14723e-05
75 *166:125 *466:A 0.000144546
*RES
1 *605:Q *167:6 12.2418 
2 *167:6 *167:10 7.1625 
3 *167:10 *167:12 7.64553 
4 *167:12 *167:14 1.832 
5 *167:14 *485:B 16.8778 
6 *167:14 *167:25 4.5 
7 *167:25 *167:27 4.05102 
8 *167:27 *564:A1 11.1567 
9 *167:27 *489:A1 25.5303 
10 *167:25 *465:A 13.3751 
11 *167:12 *486:A2 17.2964 
12 *167:10 *461:A 14.5234 
13 *167:6 *167:76 3.49641 
14 *167:76 *466:A 27.2235 
15 *167:76 *481:D_N 25.1851 
*END

*D_NET *168 0.00563471
*CONN
*I *480:A I *D sky130_fd_sc_hd__nor3_1
*I *466:C_N I *D sky130_fd_sc_hd__nor3b_1
*I *481:B I *D sky130_fd_sc_hd__nor4b_1
*I *491:SLEEP I *D sky130_fd_sc_hd__lpflow_isobufsrc_1
*I *460:A I *D sky130_fd_sc_hd__clkinv_1
*I *559:A1 I *D sky130_fd_sc_hd__o21ai_0
*I *564:B1 I *D sky130_fd_sc_hd__o31ai_1
*I *483:B1 I *D sky130_fd_sc_hd__a21oi_1
*I *485:A I *D sky130_fd_sc_hd__or4_1
*I *606:Q O *D sky130_fd_sc_hd__dfxtp_1
*CAP
1 *480:A 2.11181e-05
2 *466:C_N 0.000260846
3 *481:B 9.64815e-06
4 *491:SLEEP 1.09219e-05
5 *460:A 0.000265099
6 *559:A1 3.97386e-05
7 *564:B1 0
8 *483:B1 3.14604e-05
9 *485:A 0
10 *606:Q 0
11 *168:91 0.000404512
12 *168:78 0.000391377
13 *168:64 0.000397314
14 *168:35 0.000306662
15 *168:26 0.000225369
16 *168:12 0.000129391
17 *168:6 0.000191715
18 *460:A *462:A 0.000101148
19 *480:A *169:54 2.41483e-05
20 *168:64 *169:54 0.000122035
21 *461:A *168:64 6.50586e-05
22 *466:A *168:78 3.37943e-05
23 *467:B *466:C_N 0
24 *480:B *168:64 6.74281e-05
25 *480:C *168:64 0.000114594
26 *480:C *168:78 3.93117e-06
27 *481:A *466:C_N 1.61631e-05
28 *481:A *481:B 1.09551e-05
29 *481:C *168:91 0.000113968
30 *485:B *168:12 0
31 *485:B *168:26 0
32 *485:C *483:B1 0.000218562
33 *485:C *168:12 6.92705e-05
34 *485:D *483:B1 8.70611e-05
35 *485:D *168:12 7.97944e-05
36 *486:A1 *460:A 1.75293e-05
37 *486:A1 *559:A1 0.000114739
38 *486:A3 *460:A 3.9739e-05
39 *486:A3 *168:35 9.34396e-06
40 *487:B *559:A1 0
41 *489:A1 *168:12 3.04523e-05
42 *489:A1 *168:26 3.9739e-05
43 *489:A1 *168:35 5.66868e-06
44 *490:A1 *168:12 0
45 *490:B1 *168:35 0
46 *491:A *168:91 0
47 *549:B *466:C_N 0.000113968
48 *549:C *466:C_N 4.58003e-05
49 *561:B1 *168:78 0
50 *562:A3 *491:SLEEP 6.36477e-05
51 *562:A3 *168:91 6.50727e-05
52 *562:B1 *168:78 0
53 *564:A3 *168:26 9.35753e-06
54 *564:A3 *168:35 3.80659e-05
55 *565:A1 *559:A1 2.41483e-05
56 *565:A2 *168:35 0
57 *604:D *460:A 4.04556e-05
58 *12:44 *460:A 0.000162584
59 *12:44 *168:35 2.95757e-05
60 *12:52 *559:A1 6.08467e-05
61 *12:65 *460:A 0
62 *51:12 *466:C_N 0.000116971
63 *123:10 *466:C_N 0
64 *130:8 *466:C_N 9.82896e-06
65 *130:8 *168:91 1.19856e-05
66 *136:29 *466:C_N 7.7335e-05
67 *136:29 *168:78 1.2641e-05
68 *136:45 *466:C_N 5.96906e-05
69 *166:93 *460:A 7.86847e-05
70 *166:93 *168:64 0.000311249
71 *166:108 *168:78 4.09277e-05
72 *166:121 *481:B 3.01683e-06
73 *166:121 *491:SLEEP 6.36477e-05
74 *166:121 *168:91 0.000124911
*RES
1 *606:Q *168:6 13.8 
2 *168:6 *168:12 8.30395 
3 *168:12 *485:A 9.3 
4 *168:12 *483:B1 11.6872 
5 *168:6 *168:26 2.6625 
6 *168:26 *564:B1 13.8 
7 *168:26 *168:35 3.493 
8 *168:35 *559:A1 15.6567 
9 *168:35 *460:A 19.3693 
10 *460:A *168:64 15.5935 
11 *168:64 *168:78 14.3006 
12 *168:78 *491:SLEEP 10.0234 
13 *168:78 *168:91 4.24392 
14 *168:91 *481:B 9.87872 
15 *168:91 *466:C_N 26.2859 
16 *168:64 *480:A 10.0234 
*END

*D_NET *169 0.0097793
*CONN
*I *494:A I *D sky130_fd_sc_hd__nor2_1
*I *555:A I *D sky130_fd_sc_hd__nor2_1
*I *557:B2 I *D sky130_fd_sc_hd__a32oi_1
*I *567:A I *D sky130_fd_sc_hd__and2_0
*I *566:A2 I *D sky130_fd_sc_hd__o21ai_0
*I *467:A I *D sky130_fd_sc_hd__nand2_1
*I *495:A I *D sky130_fd_sc_hd__lpflow_inputiso1p_1
*I *561:A3 I *D sky130_fd_sc_hd__a31oi_1
*I *562:A2 I *D sky130_fd_sc_hd__a31oi_1
*I *462:A I *D sky130_fd_sc_hd__clkinv_1
*I *603:Q O *D sky130_fd_sc_hd__dfxtp_1
*CAP
1 *494:A 3.07127e-05
2 *555:A 0
3 *557:B2 0
4 *567:A 0
5 *566:A2 0
6 *467:A 1.611e-05
7 *495:A 0.000420188
8 *561:A3 8.13054e-05
9 *562:A2 0
10 *462:A 8.01681e-05
11 *603:Q 0.000159297
12 *169:78 0.000625515
13 *169:67 0.000250017
14 *169:54 0.00050682
15 *169:38 0.000427797
16 *169:36 0.000206693
17 *169:30 0.000432327
18 *169:22 0.000682779
19 *169:12 0.00044983
20 *169:10 0.000293724
21 *460:A *462:A 0.000101148
22 *461:A *169:54 6.50586e-05
23 *466:A *495:A 0
24 *466:A *169:78 0
25 *466:B *495:A 0
26 *467:B *467:A 9.32809e-06
27 *467:B *169:54 8.00505e-05
28 *480:A *169:54 2.41483e-05
29 *480:C *169:54 0.000118792
30 *486:A1 *462:A 0.000123597
31 *486:A1 *169:67 9.75356e-05
32 *488:B1 *169:38 6.46887e-05
33 *488:B1 *169:54 9.68771e-05
34 *488:B2 *169:38 3.27324e-05
35 *494:B *494:A 0.000171273
36 *496:A *495:A 0
37 *496:A *169:78 3.91898e-05
38 *497:A2 *495:A 0
39 *523:B *169:10 6.98337e-06
40 *542:A3 *494:A 0.000217923
41 *542:B1 *169:12 9.12416e-06
42 *542:B1 *169:22 0.000108446
43 *544:A *494:A 1.65872e-05
44 *557:A1 *169:30 0
45 *557:B1 *169:12 2.13165e-05
46 *557:B1 *169:22 0.00072754
47 *561:A1 *169:67 0.000139502
48 *561:A1 *169:78 0.00019364
49 *561:A2 *495:A 4.17007e-05
50 *561:A2 *561:A3 2.41274e-06
51 *561:B1 *495:A 2.65831e-05
52 *566:A1 *169:38 0.000114594
53 *566:B1 *169:36 9.28125e-05
54 *566:B1 *169:38 0.000625585
55 *566:B1 *169:54 0.000159151
56 *567:B *169:36 0.00033317
57 *567:B *169:38 0.000117238
58 *579:A2 *169:30 0
59 *579:B1 *169:36 0
60 *608:CLK *169:22 5.75903e-05
61 *610:D *169:30 0
62 *1:18 *169:30 0
63 *12:44 *462:A 5.04829e-06
64 *12:65 *169:67 0
65 *12:65 *169:78 0
66 *12:289 *169:30 0
67 *51:14 *495:A 2.57986e-05
68 *51:111 *169:10 9.60366e-05
69 *51:113 *169:10 2.09495e-05
70 *51:113 *169:12 0.000191541
71 *101:14 *169:22 6.50586e-05
72 *108:12 *169:36 0
73 *129:8 *169:54 0.000341121
74 *130:14 *169:38 1.67329e-05
75 *136:45 *495:A 0
76 *140:12 *169:10 2.7961e-05
77 *140:12 *169:12 5.29512e-05
78 *141:52 *495:A 0
79 *143:14 *169:22 5.92342e-05
80 *145:24 *495:A 0
81 *166:23 *462:A 7.92757e-06
82 *166:93 *462:A 1.2693e-05
83 *166:93 *169:67 3.46062e-05
84 *168:64 *169:54 0.000122035
*RES
1 *603:Q *169:10 17.3252 
2 *169:10 *169:12 3.90826 
3 *169:12 *169:22 17.9167 
4 *169:22 *169:30 16.6778 
5 *169:30 *169:36 4.65385 
6 *169:36 *169:38 6.82404 
7 *169:38 *169:54 16.4843 
8 *169:54 *462:A 16.7706 
9 *169:54 *169:67 4.32351 
10 *169:67 *562:A2 13.8 
11 *169:67 *169:78 8.40826 
12 *169:78 *561:A3 11.012 
13 *169:78 *495:A 27.6979 
14 *169:38 *467:A 9.87872 
15 *169:36 *566:A2 9.3 
16 *169:30 *567:A 9.3 
17 *169:22 *557:B2 9.3 
18 *169:12 *555:A 13.8 
19 *169:10 *494:A 16.1872 
*END

*D_NET *13 0.00393636
*CONN
*P tx O
*I *488:B2 I *D sky130_fd_sc_hd__a221o_1
*I *588:Q O *D sky130_fd_sc_hd__dfxtp_1
*CAP
1 tx 0.000667738
2 *488:B2 0.000730768
3 *588:Q 0
4 *13:4 0.00139851
5 tx *585:CLK 0
6 tx *585:D 0.000185822
7 tx *164:12 0
8 *488:B2 *488:B1 3.27324e-05
9 *488:B2 *488:C1 0.000107601
10 *488:B2 *577:A 0.000103349
11 *488:B2 *588:CLK 7.92757e-06
12 *488:B2 *588:D 4.05943e-06
13 *488:B2 *610:CLK 0.000158353
14 *488:B2 *137:8 6.08467e-05
15 *488:B2 *137:18 2.95757e-05
16 *488:B2 *137:84 5.0608e-05
17 *488:B2 *157:18 8.965e-06
18 *488:B2 *169:38 3.27324e-05
19 *474:A1 tx 9.08676e-05
20 *476:A1 tx 0
21 *2:17 tx 0.000265912
22 *12:289 tx 0
*RES
1 *588:Q *13:4 9.3 
2 *13:4 *488:B2 32.6064 
3 *13:4 tx 24.7252 
*END
