*SPEF "ieee 1481-1999"
*DESIGN "UART"
*DATE "08:19:05 Tuesday August 18, 2026"
*VENDOR "The OpenROAD Project"
*PROGRAM "OpenROAD"
*VERSION "26Q3-1297-gcbc7678e45"
*DESIGN_FLOW "NAME_SCOPE LOCAL" "PIN_CAP NONE"
*DIVIDER /
*DELIMITER :
*BUS_DELIMITER []
*T_UNIT 1 NS
*C_UNIT 1 PF
*R_UNIT 1 OHM
*L_UNIT 1 HENRY

*NAME_MAP
*16 _000_
*17 _001_
*18 _002_
*19 _003_
*20 _004_
*21 _005_
*22 _006_
*23 _007_
*24 _008_
*25 _009_
*26 _010_
*27 _011_
*28 _012_
*29 _013_
*30 _014_
*31 _015_
*32 _016_
*33 _017_
*34 _018_
*35 _019_
*36 _020_
*37 _021_
*38 _022_
*39 _023_
*40 _024_
*41 _025_
*42 _026_
*43 _027_
*44 _028_
*45 _029_
*46 _030_
*47 _031_
*48 _032_
*49 _033_
*50 _034_
*51 _035_
*52 _036_
*53 _037_
*54 _038_
*55 _039_
*56 _040_
*57 _041_
*58 _042_
*59 _043_
*60 _044_
*61 _045_
*62 _046_
*63 _047_
*64 _048_
*65 _049_
*66 _050_
*67 _051_
*68 _052_
*69 _053_
*70 _054_
*71 _055_
*72 _056_
*73 _057_
*74 _058_
*75 _059_
*76 _060_
*77 _061_
*78 _062_
*79 _063_
*80 _064_
*81 _065_
*82 _066_
*83 _067_
*84 _068_
*85 _069_
*86 _070_
*87 _071_
*88 _072_
*89 _073_
*90 _074_
*91 _075_
*92 _076_
*93 _077_
*94 _078_
*95 _079_
*96 _080_
*97 _081_
*98 _082_
*99 _083_
*100 _084_
*101 _085_
*102 _086_
*103 _087_
*104 _088_
*105 _089_
*106 _090_
*107 _091_
*108 _092_
*109 _093_
*110 _094_
*111 _095_
*112 _096_
*113 _097_
*114 _098_
*115 _099_
*116 _100_
*117 _101_
*118 _102_
*119 _103_
*120 _104_
*121 _105_
*122 _106_
*123 _107_
*124 _108_
*125 _109_
*126 _110_
*127 _111_
*128 _112_
*129 _113_
*130 _114_
*131 _115_
*132 _116_
*133 _117_
*134 _118_
*135 _119_
*136 _120_
*137 _121_
*1 clk
*138 clknet_0_clk
*139 clknet_2_0__leaf_clk
*140 clknet_2_1__leaf_clk
*141 clknet_2_2__leaf_clk
*142 clknet_2_3__leaf_clk
*143 counter[0]
*144 counter[10]
*145 counter[11]
*146 counter[12]
*147 counter[1]
*148 counter[2]
*149 counter[3]
*150 counter[4]
*151 counter[5]
*152 counter[6]
*153 counter[7]
*154 counter[8]
*155 counter[9]
*156 current_bit[0]
*157 current_bit[1]
*158 current_bit[2]
*159 current_bit[3]
*160 current_byte[0]
*161 current_byte[1]
*162 current_byte[2]
*163 current_byte[3]
*164 current_byte[4]
*165 current_byte[5]
*166 current_byte[6]
*167 current_byte[7]
*2 empty
*3 output_data[0]
*4 output_data[1]
*5 output_data[2]
*6 output_data[3]
*7 output_data[4]
*8 output_data[5]
*9 output_data[6]
*10 output_data[7]
*11 read_en
*12 rst
*168 state[0]
*169 state[1]
*170 state[2]
*171 stop_delay
*13 tx
*172 _122_
*173 _123_
*174 _124_
*175 _125_
*176 _126_
*177 _127_
*178 _128_
*179 _129_
*180 _130_
*181 _131_
*182 _132_
*183 _133_
*184 _134_
*185 _135_
*186 _136_
*187 _137_
*188 _138_
*189 _139_
*190 _140_
*191 _141_
*192 _142_
*193 _143_
*194 _144_
*195 _145_
*196 _146_
*197 _147_
*198 _148_
*199 _149_
*200 _150_
*201 _151_
*202 _152_
*203 _153_
*204 _154_
*205 _155_
*206 _156_
*207 _157_
*208 _158_
*209 _159_
*210 _160_
*211 _161_
*212 _162_
*213 _163_
*214 _164_
*215 _165_
*216 _166_
*217 _167_
*218 _168_
*219 _169_
*220 _170_
*221 _171_
*222 _172_
*223 _173_
*224 _174_
*225 _175_
*226 _176_
*227 _177_
*228 _178_
*229 _179_
*230 _180_
*231 _181_
*232 _182_
*233 _183_
*234 _184_
*235 _185_
*236 _186_
*237 _187_
*238 _188_
*239 _189_
*240 _190_
*241 _191_
*242 _192_
*243 _193_
*244 _194_
*245 _195_
*246 _196_
*247 _197_
*248 _198_
*249 _199_
*250 _200_
*251 _201_
*252 _202_
*253 _203_
*254 _204_
*255 _205_
*256 _206_
*257 _207_
*258 _208_
*259 _209_
*260 _210_
*261 _211_
*262 _212_
*263 _213_
*264 _214_
*265 _215_
*266 _216_
*267 _217_
*268 _218_
*269 _219_
*270 _220_
*271 _221_
*272 _222_
*273 _223_
*274 _224_
*275 _225_
*276 _226_
*277 _227_
*278 _228_
*279 _229_
*280 _230_
*281 _231_
*282 _232_
*283 _233_
*284 _234_
*285 _235_
*286 _236_
*287 _237_
*288 _238_
*289 _239_
*290 _240_
*291 _241_
*292 _242_
*293 _243_
*294 _244_
*295 _245_
*296 _246_
*297 _247_
*298 _248_
*299 _249_
*300 _250_
*301 _251_
*302 _252_
*303 _253_
*304 _254_
*305 _255_
*306 _256_
*307 _257_
*308 _258_
*309 _259_
*310 _260_
*311 _261_
*312 _262_
*313 _263_
*314 _264_
*315 _265_
*316 _266_
*317 _267_
*318 _268_
*319 _269_
*320 _270_
*321 _271_
*322 _272_
*323 _273_
*324 _274_
*325 clkbuf_0_clk
*326 clkbuf_2_0__f_clk
*327 clkbuf_2_1__f_clk
*328 clkbuf_2_2__f_clk
*329 clkbuf_2_3__f_clk
*330 clkload0
*331 clkload1
*332 clkload2

*PORTS
clk I
empty I
output_data[0] I
output_data[1] I
output_data[2] I
output_data[3] I
output_data[4] I
output_data[5] I
output_data[6] I
output_data[7] I
read_en O
rst I
tx O

*D_NET *16 0.000404486
*CONN
*I *294:D I *D sky130_fd_sc_hd__dfxtp_1
*I *182:X O *D sky130_fd_sc_hd__mux2_1
*CAP
1 *294:D 0.000169714
2 *182:X 0.000169714
3 *294:D *128:71 6.50586e-05
*RES
1 *182:X *294:D 31.2089 
*END

*D_NET *17 0.000569161
*CONN
*I *295:D I *D sky130_fd_sc_hd__dfxtp_1
*I *183:X O *D sky130_fd_sc_hd__mux2_1
*CAP
1 *295:D 0.000189486
2 *183:X 0.000189486
3 *295:D *183:A0 8.42523e-05
4 *295:D *190:A3 4.19421e-05
5 *295:D *192:A0 1.87611e-05
6 *295:D *161:12 4.52324e-05
*RES
1 *183:X *295:D 32.9771 
*END

*D_NET *18 0.000334623
*CONN
*I *296:D I *D sky130_fd_sc_hd__dfxtp_1
*I *184:X O *D sky130_fd_sc_hd__mux2_1
*CAP
1 *296:D 0.000117169
2 *184:X 0.000117169
3 *296:D *187:A0 0
4 *296:D *296:CLK 0.000100285
5 *296:D *140:27 0
*RES
1 *184:X *296:D 30.5231 
*END

*D_NET *19 0.000541505
*CONN
*I *297:D I *D sky130_fd_sc_hd__dfxtp_1
*I *185:X O *D sky130_fd_sc_hd__mux2_1
*CAP
1 *297:D 0.000181439
2 *185:X 0.000181439
3 *297:D *294:CLK 2.13584e-05
4 *297:D *128:62 0.00011818
5 *297:D *140:27 3.90891e-05
6 *6:15 *297:D 0
*RES
1 *185:X *297:D 31.7635 
*END

*D_NET *20 0.000700612
*CONN
*I *298:D I *D sky130_fd_sc_hd__dfxtp_1
*I *186:X O *D sky130_fd_sc_hd__mux2_1
*CAP
1 *298:D 8.94082e-05
2 *186:X 8.94082e-05
3 *298:D *301:CLK 0.000223132
4 *188:A1 *298:D 3.77659e-05
5 *1:22 *298:D 3.77659e-05
6 *2:17 *298:D 0.000223132
*RES
1 *186:X *298:D 31.8735 
*END

*D_NET *21 0.0014445
*CONN
*I *299:D I *D sky130_fd_sc_hd__dfxtp_1
*I *187:X O *D sky130_fd_sc_hd__mux2_1
*CAP
1 *299:D 0.000359136
2 *187:X 0.000359136
3 *299:D *201:A1 6.54102e-05
4 tx *299:D 0.000594162
5 *189:A1 *299:D 6.66538e-05
6 *12:9 *299:D 0
*RES
1 *187:X *299:D 40.1757 
*END

*D_NET *22 0.00114543
*CONN
*I *300:D I *D sky130_fd_sc_hd__dfxtp_1
*I *188:X O *D sky130_fd_sc_hd__mux2_1
*CAP
1 *300:D 0.000485176
2 *188:X 0.000485176
3 *300:D *197:B 1.79807e-05
4 *300:D *300:CLK 0
5 *300:D *139:71 0
6 *188:A1 *300:D 0.000157102
*RES
1 *188:X *300:D 38.9622 
*END

*D_NET *23 0.000458715
*CONN
*I *301:D I *D sky130_fd_sc_hd__dfxtp_1
*I *189:X O *D sky130_fd_sc_hd__mux2_1
*CAP
1 *301:D 0.000113487
2 *189:X 0.000113487
3 *301:D *191:A0 3.03605e-05
4 tx *301:D 0.000101133
5 *2:17 *301:D 0.000100247
*RES
1 *189:X *301:D 31.3189 
*END

*D_NET *24 0.000343628
*CONN
*I *302:D I *D sky130_fd_sc_hd__dfxtp_1
*I *201:X O *D sky130_fd_sc_hd__a221o_1
*CAP
1 *302:D 9.72232e-05
2 *201:X 9.72232e-05
3 *302:D *201:A2 0.000149181
4 *1:22 *302:D 0
*RES
1 *201:X *302:D 30.4855 
*END

*D_NET *25 0.000499619
*CONN
*I *303:D I *D sky130_fd_sc_hd__dfxtp_1
*I *209:Y O *D sky130_fd_sc_hd__nor2_1
*CAP
1 *303:D 0.000161575
2 *209:Y 0.000161575
3 *303:D *303:CLK 0.000176469
4 *12:112 *303:D 0
*RES
1 *209:Y *303:D 32.1494 
*END

*D_NET *26 0.000853985
*CONN
*I *304:D I *D sky130_fd_sc_hd__dfxtp_1
*I *213:Y O *D sky130_fd_sc_hd__a21oi_1
*CAP
1 *304:D 0.000215072
2 *213:Y 0.000215072
3 *304:D *207:A 5.41377e-05
4 *304:D *207:B 6.49002e-05
5 *304:D *316:CLK 1.87611e-05
6 *304:D *141:37 2.94426e-05
7 *304:D *143:6 6.50586e-05
8 *304:D *143:10 0.000137404
9 *304:D *143:16 5.41377e-05
10 *304:D *171:74 0
*RES
1 *213:Y *304:D 34.1157 
*END

*D_NET *27 0.00154953
*CONN
*I *305:D I *D sky130_fd_sc_hd__dfxtp_1
*I *217:Y O *D sky130_fd_sc_hd__nor3_1
*CAP
1 *305:D 0.000773173
2 *217:Y 0.000773173
3 *305:D *305:CLK 3.18826e-06
4 *305:D *306:CLK 0
5 *305:D *307:D 0
6 *12:138 *305:D 0
*RES
1 *217:Y *305:D 43.3934 
*END

*D_NET *28 0.000774325
*CONN
*I *306:D I *D sky130_fd_sc_hd__dfxtp_1
*I *222:Y O *D sky130_fd_sc_hd__nor3_1
*CAP
1 *306:D 0.000196705
2 *222:Y 0.000196705
3 *306:D *221:A3 0.000153225
4 *306:D *222:C 0.000153225
5 *306:D *306:CLK 7.44658e-05
*RES
1 *222:Y *306:D 33.8132 
*END

*D_NET *29 0.00204205
*CONN
*I *307:D I *D sky130_fd_sc_hd__dfxtp_1
*I *226:Y O *D sky130_fd_sc_hd__nor3_1
*CAP
1 *307:D 0.000545471
2 *226:Y 0.000545471
3 *307:D *215:B1 7.50872e-05
4 *307:D *217:B 6.08467e-05
5 *307:D *221:A3 2.7138e-05
6 *307:D *222:C 0.000349931
7 *307:D *226:C 3.63356e-06
8 *307:D *306:CLK 2.692e-05
9 *307:D *141:74 0.000132947
10 *307:D *141:78 1.61631e-05
11 *307:D *148:14 1.4091e-06
12 *307:D *148:22 2.7224e-05
13 *305:D *307:D 0
14 *12:123 *307:D 5.41227e-05
15 *12:138 *307:D 0.000175689
*RES
1 *226:Y *307:D 42.9033 
*END

*D_NET *30 0.000466277
*CONN
*I *308:D I *D sky130_fd_sc_hd__dfxtp_1
*I *230:Y O *D sky130_fd_sc_hd__nor3_1
*CAP
1 *308:D 0.000112725
2 *230:Y 0.000112725
3 *308:D *230:C 0.000122083
4 *308:D *51:130 6.50727e-05
5 *308:D *150:21 6.67095e-06
6 *308:D *151:37 3.20069e-06
7 *308:D *151:74 4.37999e-05
*RES
1 *230:Y *308:D 30.7937 
*END

*D_NET *31 0.000592511
*CONN
*I *309:D I *D sky130_fd_sc_hd__dfxtp_1
*I *234:Y O *D sky130_fd_sc_hd__nor3_1
*CAP
1 *309:D 0.000158208
2 *234:Y 0.000158208
3 *309:D *265:A1 0
4 *309:D *265:B1 3.5534e-06
5 *309:D *309:CLK 0.000110833
6 *309:D *138:67 3.68867e-05
7 *309:D *150:25 0
8 *309:D *152:10 2.54559e-05
9 *309:D *152:50 3.42931e-05
10 *234:A *309:D 6.50727e-05
*RES
1 *234:Y *309:D 32.1433 
*END

*D_NET *32 0.000696605
*CONN
*I *310:D I *D sky130_fd_sc_hd__dfxtp_1
*I *238:Y O *D sky130_fd_sc_hd__a211oi_1
*CAP
1 *310:D 0.000114877
2 *238:Y 0.000114877
3 *310:D *237:B1 0.000119335
4 *310:D *241:B1 2.95757e-05
5 *310:D *310:CLK 0.000158709
6 *310:D *154:16 6.08467e-05
7 *310:D *154:22 9.83856e-05
*RES
1 *238:Y *310:D 31.7341 
*END

*D_NET *33 0.000835453
*CONN
*I *311:D I *D sky130_fd_sc_hd__dfxtp_1
*I *243:Y O *D sky130_fd_sc_hd__nor3_1
*CAP
1 *311:D 0.000139666
2 *243:Y 0.000139666
3 *311:D *243:B 9.96342e-05
4 *311:D *142:76 0.00016553
5 *311:D *154:16 0.000290956
*RES
1 *243:Y *311:D 32.7415 
*END

*D_NET *34 0.00211028
*CONN
*I *312:D I *D sky130_fd_sc_hd__dfxtp_1
*I *247:Y O *D sky130_fd_sc_hd__a21oi_1
*CAP
1 *312:D 0.00044815
2 *247:Y 0.00044815
3 *312:D *236:A 0.000517157
4 *312:D *242:B 4.71765e-06
5 *312:D *243:B 0
6 *312:D *250:A2 0.000105822
7 *312:D *259:A2 5.33048e-05
8 *312:D *312:CLK 0.000185193
9 *312:D *53:134 0.00020588
10 *312:D *78:69 2.41267e-05
11 *243:A *312:D 0.000111838
12 *12:325 *312:D 5.94197e-06
*RES
1 *247:Y *312:D 43.047 
*END

*D_NET *35 0.000387162
*CONN
*I *313:D I *D sky130_fd_sc_hd__dfxtp_1
*I *251:Y O *D sky130_fd_sc_hd__nor3_1
*CAP
1 *313:D 6.79011e-05
2 *251:Y 6.79011e-05
3 *313:D *251:B 0.000151726
4 *313:D *144:23 2.13584e-05
5 *251:A *313:D 7.82754e-05
*RES
1 *251:Y *313:D 30.4855 
*END

*D_NET *36 0.000335213
*CONN
*I *314:D I *D sky130_fd_sc_hd__dfxtp_1
*I *256:Y O *D sky130_fd_sc_hd__nor3_1
*CAP
1 *314:D 4.85032e-05
2 *256:Y 4.85032e-05
3 *314:D *254:B1 3.31882e-05
4 *314:D *314:CLK 1.87611e-05
5 *314:D *52:10 9.60216e-05
6 *314:D *145:10 1.87611e-05
7 *314:D *145:16 7.14746e-05
*RES
1 *256:Y *314:D 29.655 
*END

*D_NET *37 0.000702739
*CONN
*I *315:D I *D sky130_fd_sc_hd__dfxtp_1
*I *259:Y O *D sky130_fd_sc_hd__a21oi_1
*CAP
1 *315:D 0.000151951
2 *259:Y 0.000151951
3 *315:D *250:B1 2.16355e-05
4 *315:D *313:CLK 0.000100156
5 *315:D *155:52 0.000138523
6 *12:287 *315:D 0.000138523
*RES
1 *259:Y *315:D 32.1433 
*END

*D_NET *38 0.000368391
*CONN
*I *316:D I *D sky130_fd_sc_hd__dfxtp_1
*I *270:Y O *D sky130_fd_sc_hd__nor3_1
*CAP
1 *316:D 0.00013167
2 *270:Y 0.00013167
3 *316:D *270:C 4.61732e-05
4 *316:D *316:CLK 1.61631e-05
5 *12:179 *316:D 4.27148e-05
*RES
1 *270:Y *316:D 31.0777 
*END

*D_NET *39 0.00297228
*CONN
*I *317:D I *D sky130_fd_sc_hd__dfxtp_1
*I *272:Y O *D sky130_fd_sc_hd__a31oi_1
*CAP
1 *317:D 0
2 *272:Y 0.00106475
3 *39:14 0.00106475
4 *39:14 *178:A 1.90218e-05
5 *39:14 *179:C_N 1.87469e-05
6 *39:14 *194:B 5.65074e-05
7 *39:14 *194:D_N 2.53624e-06
8 *39:14 *195:A 0
9 *39:14 *269:A 2.36494e-05
10 *39:14 *272:A2 0.000118166
11 *39:14 *272:A3 1.61631e-05
12 *39:14 *273:A1 1.67988e-05
13 *39:14 *273:A2 0.00011818
14 *39:14 *273:A3 0.000145932
15 *39:14 *274:B1 6.08467e-05
16 *39:14 *49:27 0.000118245
17 *39:14 *121:10 0
18 *39:14 *159:33 0
19 *39:14 *168:22 0.000118166
20 *12:58 *39:14 9.82896e-06
*RES
1 *272:Y *39:14 43.806 
2 *39:14 *317:D 9.3 
*END

*D_NET *40 0.00107156
*CONN
*I *318:D I *D sky130_fd_sc_hd__dfxtp_1
*I *275:Y O *D sky130_fd_sc_hd__nor2_1
*CAP
1 *318:D 0.00030771
2 *275:Y 0.00030771
3 *318:D *277:A2 0
4 *318:D *317:CLK 0
5 *318:D *319:D 0
6 *318:D *139:20 0.000333559
7 *318:D *169:72 1.78514e-05
8 *12:92 *318:D 0.000104731
*RES
1 *275:Y *318:D 37.1352 
*END

*D_NET *41 0.00133458
*CONN
*I *319:D I *D sky130_fd_sc_hd__dfxtp_1
*I *277:Y O *D sky130_fd_sc_hd__a21oi_1
*CAP
1 *319:D 0.000665753
2 *277:Y 0.000665753
3 *319:D *199:A3 0
4 *319:D *277:A2 0
5 *319:D *293:B1 0
6 *319:D *317:CLK 0
7 *319:D *324:CLK 0
8 *319:D *139:22 0
9 *319:D *139:44 0
10 *292:B1 *319:D 0
11 *318:D *319:D 0
12 *12:88 *319:D 3.072e-06
*RES
1 *277:Y *319:D 40.626 
*END

*D_NET *42 0.000368341
*CONN
*I *320:D I *D sky130_fd_sc_hd__dfxtp_1
*I *281:Y O *D sky130_fd_sc_hd__nor2_1
*CAP
1 *320:D 0.000121923
2 *281:Y 0.000121923
3 *320:D *320:CLK 6.08467e-05
4 *281:A *320:D 6.36477e-05
*RES
1 *281:Y *320:D 21.3549 
*END

*D_NET *43 0.000441125
*CONN
*I *321:D I *D sky130_fd_sc_hd__dfxtp_1
*I *284:Y O *D sky130_fd_sc_hd__nor2_1
*CAP
1 *321:D 0.00013853
2 *284:Y 0.00013853
3 *321:D *290:A 6.08467e-05
4 *321:D *140:62 5.68237e-06
5 *321:D *157:10 0
6 *321:D *157:59 0
7 *12:243 *321:D 9.75356e-05
*RES
1 *284:Y *321:D 30.7937 
*END

*D_NET *44 0.000581614
*CONN
*I *322:D I *D sky130_fd_sc_hd__dfxtp_1
*I *288:Y O *D sky130_fd_sc_hd__nor3_1
*CAP
1 *322:D 8.41603e-05
2 *288:Y 8.41603e-05
3 *322:D *192:S 3.06627e-05
4 *322:D *285:A 8.03393e-06
5 *322:D *320:CLK 0.000161095
6 *322:D *158:10 0.000146934
7 *322:D *158:27 6.65668e-05
*RES
1 *288:Y *322:D 31.0777 
*END

*D_NET *45 0.000587772
*CONN
*I *323:D I *D sky130_fd_sc_hd__dfxtp_1
*I *291:Y O *D sky130_fd_sc_hd__a21oi_1
*CAP
1 *323:D 0.000181513
2 *291:Y 0.000181513
3 *323:D *282:B 0
4 *323:D *108:23 0.000224747
5 *323:D *171:18 0
*RES
1 *291:Y *323:D 32.704 
*END

*D_NET *46 0.00059582
*CONN
*I *324:D I *D sky130_fd_sc_hd__dfxtp_1
*I *293:Y O *D sky130_fd_sc_hd__o41ai_1
*CAP
1 *324:D 0.00027716
2 *293:Y 0.00027716
3 *324:D *293:B1 4.15008e-05
*RES
1 *293:Y *324:D 32.8728 
*END

*D_NET *47 0.000478378
*CONN
*I *200:B I *D sky130_fd_sc_hd__nand2_1
*I *199:Y O *D sky130_fd_sc_hd__a31oi_1
*CAP
1 *200:B 9.81248e-05
2 *199:Y 9.81248e-05
3 *200:B *277:A1 6.80719e-05
4 *200:B *168:30 0.00015321
5 *12:58 *200:B 6.08467e-05
*RES
1 *199:Y *200:B 30.9859 
*END

*D_NET *48 0.0011681
*CONN
*I *201:C1 I *D sky130_fd_sc_hd__a221o_1
*I *200:Y O *D sky130_fd_sc_hd__nand2_1
*CAP
1 *201:C1 0.000332694
2 *200:Y 0.000332694
3 *201:C1 *197:A 6.50586e-05
4 *201:C1 *201:B1 6.75302e-05
5 *201:C1 *326:A 6.73186e-05
6 *201:C1 *139:12 0.000103139
7 *201:C1 *139:20 0.000142438
8 *201:C1 *139:69 4.0752e-05
9 *201:B2 *201:C1 1.64789e-05
*RES
1 *200:Y *201:C1 28.7758 
*END

*D_NET *49 0.00371854
*CONN
*I *203:B I *D sky130_fd_sc_hd__nor2_1
*I *204:C I *D sky130_fd_sc_hd__nor3_1
*I *274:A3 I *D sky130_fd_sc_hd__a31oi_1
*I *202:X O *D sky130_fd_sc_hd__lpflow_isobufsrc_1
*CAP
1 *203:B 0.000100162
2 *204:C 1.81917e-05
3 *274:A3 0.000150495
4 *202:X 0.00024807
5 *49:27 0.000372678
6 *49:10 0.000652889
7 *203:B *204:B 9.62733e-05
8 *203:B *270:C 6.92705e-05
9 *204:C *204:B 1.09551e-05
10 *204:C *269:B 0
11 *274:A3 *194:C 8.92649e-05
12 *274:A3 *274:A1 9.14505e-05
13 *274:A3 *274:A2 0.000364356
14 *274:A3 *275:B 1.40978e-05
15 *274:A3 *121:6 0.000114584
16 *49:10 *202:SLEEP 0.000116014
17 *49:10 *271:B1 0.000111802
18 *49:10 *273:B1 0
19 *49:10 *120:10 0
20 *49:10 *121:10 0.000369345
21 *49:10 *168:24 0
22 *49:10 *170:40 6.11624e-05
23 *49:27 *269:A 0
24 *49:27 *269:B 0.000144695
25 *49:27 *270:C 0.000334808
26 *49:27 *121:10 2.95757e-05
27 *49:27 *171:78 4.01573e-05
28 *39:14 *49:27 0.000118245
*RES
1 *202:X *49:10 21.893 
2 *49:10 *274:A3 20.6481 
3 *49:10 *49:27 14.4018 
4 *49:27 *204:C 9.87872 
5 *49:27 *203:B 12.8205 
*END

*D_NET *50 0.000225806
*CONN
*I *262:A1 I *D sky130_fd_sc_hd__o21ai_0
*I *203:Y O *D sky130_fd_sc_hd__nor2_1
*CAP
1 *262:A1 8.12438e-05
2 *203:Y 8.12438e-05
3 *262:A1 *204:B 2.65667e-05
4 *262:A1 *159:33 3.67523e-05
*RES
1 *203:Y *262:A1 20.9872 
*END

*D_NET *51 0.0205786
*CONN
*I *242:A I *D sky130_fd_sc_hd__nor2_1
*I *244:A1 I *D sky130_fd_sc_hd__o21ai_0
*I *237:A2 I *D sky130_fd_sc_hd__a21oi_1
*I *232:A2 I *D sky130_fd_sc_hd__a22oi_1
*I *228:A2 I *D sky130_fd_sc_hd__a21oi_1
*I *224:A2 I *D sky130_fd_sc_hd__a21oi_1
*I *220:A2 I *D sky130_fd_sc_hd__a21oi_1
*I *215:A2 I *D sky130_fd_sc_hd__a21oi_1
*I *210:B I *D sky130_fd_sc_hd__nand2_1
*I *255:A I *D sky130_fd_sc_hd__nor2_1
*I *249:A2 I *D sky130_fd_sc_hd__a21oi_1
*I *257:A1 I *D sky130_fd_sc_hd__o21ai_0
*I *205:B I *D sky130_fd_sc_hd__nor2_1
*I *206:SLEEP I *D sky130_fd_sc_hd__lpflow_inputiso1p_1
*I *208:A2 I *D sky130_fd_sc_hd__a21oi_1
*I *269:B I *D sky130_fd_sc_hd__nor2_1
*I *204:Y O *D sky130_fd_sc_hd__nor3_1
*CAP
1 *242:A 0
2 *244:A1 0.00011494
3 *237:A2 2.18332e-05
4 *232:A2 0
5 *228:A2 1.87688e-05
6 *224:A2 0
7 *220:A2 2.16168e-05
8 *215:A2 1.25804e-05
9 *210:B 0.000310037
10 *255:A 0.000136217
11 *249:A2 0.000443089
12 *257:A1 2.14101e-05
13 *205:B 2.02613e-05
14 *206:SLEEP 0
15 *208:A2 0.000211942
16 *269:B 0.000165356
17 *204:Y 0.000347053
18 *51:207 0.000429279
19 *51:140 0.000710947
20 *51:132 0.00050774
21 *51:130 0.000528188
22 *51:124 0.00078041
23 *51:118 0.000597335
24 *51:110 0.000408378
25 *51:106 0.000761183
26 *51:93 0.000607048
27 *51:74 0.000587531
28 *51:59 0.000309942
29 *51:50 0.00046641
30 *51:30 0.000324217
31 *51:26 0.000451588
32 *205:B *205:A 4.80635e-06
33 *208:A2 *207:B 6.50727e-05
34 *208:A2 *208:A1 0.000164829
35 *208:A2 *208:B1 1.67784e-05
36 *208:A2 *212:A1 0.000106624
37 *208:A2 *53:14 2.57365e-05
38 *208:A2 *143:16 0.000107496
39 *208:A2 *171:66 0.000111802
40 *210:B *207:B 0
41 *210:B *216:A1 0
42 *210:B *221:A2 5.82461e-05
43 *210:B *221:A3 0.00017702
44 *210:B *53:35 1.36556e-05
45 *210:B *53:48 3.90689e-06
46 *210:B *143:106 5.41227e-05
47 *210:B *147:53 2.1102e-05
48 *210:B *147:57 3.45876e-05
49 *215:A2 *221:A2 1.93781e-05
50 *215:A2 *221:A3 3.9069e-05
51 *220:A2 *220:A1 6.08467e-05
52 *220:A2 *266:B 1.41976e-05
53 *220:A2 *147:88 2.16355e-05
54 *228:A2 *228:A1 1.09551e-05
55 *244:A1 *236:A 0.000172691
56 *244:A1 *245:A 3.42714e-05
57 *244:A1 *246:B 0.000213216
58 *244:A1 *247:A2 7.77309e-06
59 *244:A1 *155:33 1.95851e-05
60 *249:A2 *251:B 1.96267e-05
61 *249:A2 *253:A3 0.00032275
62 *249:A2 *286:A1 0.000138745
63 *249:A2 *286:A2 1.67329e-05
64 *249:A2 *286:B2 6.36477e-05
65 *249:A2 *288:B 6.7671e-06
66 *249:A2 *78:30 3.88213e-05
67 *255:A *252:A 2.16355e-05
68 *255:A *253:A1 3.82228e-05
69 *255:A *256:C 0
70 *255:A *258:C 0
71 *255:A *267:A 0.000108054
72 *255:A *155:84 1.65872e-05
73 *257:A1 *257:A2 1.98545e-05
74 *257:A1 *53:110 5.21908e-05
75 *269:B *204:B 1.09551e-05
76 *51:26 *270:C 0.000318803
77 *51:30 *212:A1 1.41976e-05
78 *51:30 *53:80 0.000243901
79 *51:30 *171:66 0.000282235
80 *51:50 *205:A 0.000113197
81 *51:50 *268:A2 0.000215771
82 *51:50 *270:B 0.000322616
83 *51:50 *270:C 0.00011818
84 *51:50 *53:80 9.12601e-05
85 *51:50 *53:97 0.000303718
86 *51:50 *171:60 6.50954e-05
87 *51:50 *171:66 0.000350535
88 *51:59 *205:A 4.82966e-05
89 *51:59 *257:A2 2.61012e-05
90 *51:59 *53:97 0.000791309
91 *51:59 *53:110 0.000345947
92 *51:93 *259:A1 4.34944e-05
93 *51:93 *78:30 6.38243e-05
94 *51:93 *145:55 5.56367e-05
95 *51:106 *176:A 0
96 *51:106 *259:A1 7.20535e-05
97 *51:106 *78:26 0.000217455
98 *51:106 *142:8 0.000182915
99 *51:106 *142:12 0.000389761
100 *51:106 *145:55 0.000130808
101 *51:118 *232:B1 0.000290821
102 *51:118 *235:A 4.31703e-05
103 *51:118 *238:A2 1.75125e-05
104 *51:118 *238:B1 0.000169041
105 *51:118 *72:23 7.64586e-05
106 *51:124 *228:A1 5.45051e-05
107 *51:124 *232:B1 2.89651e-05
108 *51:124 *233:A2 6.50727e-05
109 *51:124 *233:A3 6.08467e-05
110 *51:124 *234:B 1.41291e-05
111 *51:124 *234:C 0.000108455
112 *51:124 *72:23 0.000233844
113 *51:130 *223:B1 0
114 *51:130 *224:B1 5.65074e-05
115 *51:130 *228:A1 3.07133e-05
116 *51:130 *228:B1 6.50586e-05
117 *51:130 *230:B 7.97098e-06
118 *51:130 *62:42 0.00031994
119 *51:130 *62:48 1.44611e-05
120 *51:130 *149:31 0.000308078
121 *51:130 *151:35 0.000171288
122 *51:132 *223:B1 0
123 *51:132 *224:B1 3.20069e-06
124 *51:132 *226:B 2.09442e-05
125 *51:132 *147:88 3.92776e-05
126 *51:132 *149:31 0.000155064
127 *51:140 *219:B 0.000364919
128 *51:140 *147:88 3.38973e-05
129 *51:140 *148:57 4.73911e-05
130 *51:140 *149:31 3.29488e-05
131 *51:207 *176:A 0
132 *51:207 *242:B 0.000162739
133 *51:207 *243:B 7.5301e-06
134 *51:207 *243:C 0.000114518
135 *51:207 *246:A 1.8872e-05
136 *51:207 *138:99 6.43233e-06
137 *51:207 *142:8 3.31882e-05
138 *51:207 *142:67 2.24484e-05
139 *204:C *269:B 0
140 *226:A *51:140 0.000208369
141 *234:A *51:124 8.2862e-05
142 *234:A *51:130 1.53708e-05
143 *238:C1 *51:118 0.000167076
144 *256:A *255:A 2.51527e-05
145 *308:D *51:130 6.50727e-05
146 *12:198 *51:26 0
147 *12:198 *51:130 2.16355e-05
148 *12:258 *249:A2 5.74625e-05
149 *12:258 *51:93 1.42932e-05
150 *49:27 *269:B 0.000144695
*RES
1 *204:Y *269:B 23.2538 
2 *204:Y *51:26 24.2845 
3 *51:26 *51:30 7.40275 
4 *51:30 *208:A2 16.8957 
5 *51:30 *206:SLEEP 9.3 
6 *51:26 *51:50 12.3701 
7 *51:50 *205:B 9.87872 
8 *51:50 *51:59 12.3701 
9 *51:59 *257:A1 10.578 
10 *51:59 *51:74 4.5 
11 *51:74 *249:A2 26.4989 
12 *51:74 *51:93 3.98154 
13 *51:93 *255:A 17.8751 
14 *51:93 *51:106 13.4591 
15 *51:106 *51:110 7.44181 
16 *51:110 *51:118 10.007 
17 *51:118 *51:124 10.5616 
18 *51:124 *51:130 18.9752 
19 *51:130 *51:132 3.07775 
20 *51:132 *51:140 8.58163 
21 *51:140 *210:B 21.4096 
22 *51:140 *215:A2 14.5939 
23 *51:132 *220:A2 14.5234 
24 *51:130 *224:A2 13.8 
25 *51:124 *228:A2 9.87872 
26 *51:118 *232:A2 9.3 
27 *51:110 *237:A2 9.87872 
28 *51:106 *51:207 12.3496 
29 *51:207 *244:A1 23.4033 
30 *51:207 *242:A 9.3 
*END

*D_NET *52 0.00567552
*CONN
*I *241:A1 I *D sky130_fd_sc_hd__a21oi_1
*I *232:B1 I *D sky130_fd_sc_hd__a22oi_1
*I *254:A3 I *D sky130_fd_sc_hd__a41oi_1
*I *205:Y O *D sky130_fd_sc_hd__nor2_1
*CAP
1 *241:A1 0.000338039
2 *232:B1 0.000400492
3 *254:A3 0
4 *205:Y 0.000623473
5 *52:23 0.000956733
6 *52:10 0.000841675
7 *232:B1 *234:C 0
8 *241:A1 *235:A 0.000381699
9 *241:A1 *239:C 0
10 *241:A1 *243:B 6.5807e-05
11 *241:A1 *75:8 8.39059e-05
12 *241:A1 *123:32 6.53377e-05
13 *241:A1 *154:22 2.7482e-05
14 *52:10 *175:A 0.000190042
15 *52:10 *239:A 0.000125708
16 *52:10 *254:B1 8.96809e-05
17 *52:10 *256:B 1.47291e-05
18 *52:10 *53:97 0.000649115
19 *52:23 *239:A 7.58739e-05
20 *52:23 *254:A4 0.000125695
21 *52:23 *123:19 2.47663e-05
22 *52:23 *123:32 6.39342e-05
23 *52:23 *154:22 0.000115522
24 *234:A *232:B1 0
25 *314:D *52:10 9.60216e-05
26 *51:118 *232:B1 0.000290821
27 *51:124 *232:B1 2.89651e-05
*RES
1 *205:Y *52:10 29.5153 
2 *52:10 *254:A3 13.8 
3 *52:10 *52:23 6.8883 
4 *52:23 *232:B1 20.9134 
5 *52:23 *241:A1 24.6632 
*END

*D_NET *53 0.0175062
*CONN
*I *236:A I *D sky130_fd_sc_hd__nor2_1
*I *245:B I *D sky130_fd_sc_hd__nor2_1
*I *240:A I *D sky130_fd_sc_hd__nor2_1
*I *248:B1 I *D sky130_fd_sc_hd__a31oi_1
*I *258:B I *D sky130_fd_sc_hd__or3_1
*I *253:B1 I *D sky130_fd_sc_hd__a41oi_1
*I *227:B1 I *D sky130_fd_sc_hd__a31oi_1
*I *211:B1 I *D sky130_fd_sc_hd__a21oi_1
*I *219:A I *D sky130_fd_sc_hd__nor2_1
*I *223:B1 I *D sky130_fd_sc_hd__a21oi_1
*I *214:B1 I *D sky130_fd_sc_hd__a31oi_1
*I *207:B I *D sky130_fd_sc_hd__nor2_1
*I *206:X O *D sky130_fd_sc_hd__lpflow_inputiso1p_1
*CAP
1 *236:A 0.000839758
2 *245:B 0
3 *240:A 2.68274e-05
4 *248:B1 3.03189e-05
5 *258:B 4.38053e-05
6 *253:B1 3.83817e-05
7 *227:B1 0.000313407
8 *211:B1 0
9 *219:A 3.5961e-05
10 *223:B1 0.000263844
11 *214:B1 0
12 *207:B 0.00021005
13 *206:X 0.000882206
14 *53:136 2.68274e-05
15 *53:134 0.00119782
16 *53:123 0.000457294
17 *53:110 0.000239277
18 *53:97 0.000785438
19 *53:80 0.00144866
20 *53:48 0.000422149
21 *53:35 0.000202054
22 *53:18 0.000357738
23 *53:14 0.00043543
24 *207:B *207:A 8.62625e-06
25 *207:B *208:B1 5.04829e-06
26 *207:B *213:A2 1.6594e-05
27 *207:B *141:16 2.95757e-05
28 *207:B *141:37 0.000192278
29 *207:B *143:10 5.66868e-06
30 *219:A *219:B 1.47978e-05
31 *219:A *220:A1 8.67924e-06
32 *219:A *220:B1 6.13007e-06
33 *223:B1 *219:B 3.88358e-05
34 *223:B1 *222:B 9.12246e-05
35 *223:B1 *224:B1 4.01437e-05
36 *223:B1 *226:B 1.55027e-05
37 *223:B1 *62:48 3.67528e-06
38 *223:B1 *141:8 9.61651e-05
39 *223:B1 *141:72 7.15593e-05
40 *227:B1 *262:A2 0
41 *227:B1 *263:A 0
42 *227:B1 *264:C 0.000321786
43 *227:B1 *265:A2 0.000451096
44 *227:B1 *265:A3 0
45 *227:B1 *150:45 0
46 *227:B1 *152:16 0.000295063
47 *236:A *243:B 2.86705e-05
48 *236:A *247:A2 1.46079e-05
49 *236:A *75:8 1.03434e-05
50 *236:A *155:10 0
51 *240:A *246:B 2.41274e-06
52 *240:A *155:39 6.08467e-05
53 *248:B1 *144:23 1.59756e-05
54 *253:B1 *239:A 4.77858e-05
55 *253:B1 *253:A2 6.98648e-06
56 *253:B1 *253:A4 1.07248e-05
57 *258:B *146:22 9.34404e-05
58 *258:B *155:54 9.60366e-05
59 *53:14 *211:A1 6.16161e-07
60 *53:14 *212:B1 0.000125695
61 *53:14 *213:A2 1.5254e-05
62 *53:14 *218:D 7.22239e-05
63 *53:14 *143:10 8.92568e-06
64 *53:14 *143:16 1.36691e-05
65 *53:14 *147:10 1.75625e-05
66 *53:14 *147:27 0.000121986
67 *53:14 *171:66 0.000215785
68 *53:14 *171:74 2.95757e-05
69 *53:18 *213:A1 6.50727e-05
70 *53:18 *218:D 5.04829e-06
71 *53:18 *141:16 6.08467e-05
72 *53:18 *143:45 1.5613e-05
73 *53:35 *141:16 0.000148144
74 *53:35 *143:106 0
75 *53:48 *219:B 6.50727e-05
76 *53:48 *220:B1 4.63871e-06
77 *53:48 *221:A2 0.000140303
78 *53:48 *226:B 0.000217951
79 *53:48 *226:C 9.19886e-06
80 *53:48 *141:8 9.82202e-06
81 *53:48 *141:16 0.000132557
82 *53:80 *270:B 0.000114523
83 *53:97 *255:B 6.08467e-05
84 *53:97 *270:B 0.000208093
85 *53:110 *255:B 6.50727e-05
86 *53:110 *257:A2 6.53068e-05
87 *53:123 *248:A2 1.43404e-05
88 *53:123 *144:23 2.81165e-05
89 *53:123 *144:33 6.3657e-05
90 *53:134 *247:A2 3.48089e-05
91 *53:134 *251:C 7.09051e-05
92 *53:134 *259:A2 0.000107705
93 *53:134 *313:CLK 0.000311593
94 *53:134 *144:33 4.8584e-05
95 *208:A2 *207:B 6.50727e-05
96 *208:A2 *53:14 2.57365e-05
97 *210:B *207:B 0
98 *210:B *53:35 1.36556e-05
99 *210:B *53:48 3.90689e-06
100 *244:A1 *236:A 0.000172691
101 *247:B1 *53:134 7.65861e-05
102 *251:A *53:123 0.000198857
103 *256:A *53:110 0.000357898
104 *257:A1 *53:110 5.21908e-05
105 *304:D *207:B 6.49002e-05
106 *312:D *236:A 0.000517157
107 *312:D *53:134 0.00020588
108 *12:123 *53:35 0
109 *12:198 *227:B1 2.94753e-05
110 *12:279 *53:110 0.000139947
111 *12:279 *53:123 0.000110306
112 *51:30 *53:80 0.000243901
113 *51:50 *53:80 9.12601e-05
114 *51:50 *53:97 0.000303718
115 *51:59 *53:97 0.000791309
116 *51:59 *53:110 0.000345947
117 *51:130 *223:B1 0
118 *51:132 *223:B1 0
119 *52:10 *53:97 0.000649115
*RES
1 *206:X *53:14 27.1192 
2 *53:14 *53:18 6.3326 
3 *53:18 *207:B 20.3125 
4 *53:18 *53:35 2.6625 
5 *53:35 *214:B1 13.8 
6 *53:35 *53:48 9.96496 
7 *53:48 *223:B1 25.9455 
8 *53:48 *219:A 10.4936 
9 *53:14 *211:B1 9.3 
10 *206:X *53:80 18.3424 
11 *53:80 *227:B1 30.5133 
12 *53:80 *53:97 18.109 
13 *53:97 *253:B1 19.3015 
14 *53:97 *53:110 6.82404 
15 *53:110 *258:B 20.132 
16 *53:110 *53:123 3.49641 
17 *53:123 *248:B1 10.2886 
18 *53:123 *53:134 17.1286 
19 *53:134 *53:136 4.5 
20 *53:136 *240:A 10.0234 
21 *53:136 *245:B 9.3 
22 *53:134 *236:A 32.4383 
*END

*D_NET *54 0.00030429
*CONN
*I *208:B1 I *D sky130_fd_sc_hd__a21oi_1
*I *207:Y O *D sky130_fd_sc_hd__nor2_1
*CAP
1 *208:B1 0.00013251
2 *207:Y 0.00013251
3 *208:B1 *208:A1 1.00937e-05
4 *208:B1 *209:B 7.34948e-06
5 *208:B1 *212:A1 0
6 *207:B *208:B1 5.04829e-06
7 *208:A2 *208:B1 1.67784e-05
*RES
1 *207:Y *208:B1 22.1446 
*END

*D_NET *55 0.000371914
*CONN
*I *209:B I *D sky130_fd_sc_hd__nor2_1
*I *208:Y O *D sky130_fd_sc_hd__a21oi_1
*CAP
1 *209:B 0.000156925
2 *208:Y 0.000156925
3 *208:B1 *209:B 7.34948e-06
4 *209:A *209:B 5.0715e-05
*RES
1 *208:Y *209:B 22.5305 
*END

*D_NET *56 0.00036404
*CONN
*I *213:A1 I *D sky130_fd_sc_hd__a21oi_1
*I *210:Y O *D sky130_fd_sc_hd__nand2_1
*CAP
1 *213:A1 7.62027e-05
2 *210:Y 7.62027e-05
3 *213:A1 *218:D 7.50872e-05
4 *213:A1 *141:16 7.14746e-05
5 *53:18 *213:A1 6.50727e-05
*RES
1 *210:Y *213:A1 29.7401 
*END

*D_NET *57 0.00031217
*CONN
*I *212:B1 I *D sky130_fd_sc_hd__o21ai_0
*I *211:Y O *D sky130_fd_sc_hd__a21oi_1
*CAP
1 *212:B1 4.36549e-05
2 *211:Y 4.36549e-05
3 *212:B1 *213:A2 7.86847e-05
4 *212:B1 *143:10 2.04806e-05
5 *53:14 *212:B1 0.000125695
*RES
1 *211:Y *212:B1 29.8472 
*END

*D_NET *58 0.000361224
*CONN
*I *213:A2 I *D sky130_fd_sc_hd__a21oi_1
*I *212:Y O *D sky130_fd_sc_hd__o21ai_0
*CAP
1 *213:A2 5.20807e-05
2 *212:Y 5.20807e-05
3 *213:A2 *218:D 3.67708e-05
4 *213:A2 *141:16 8.62625e-06
5 *213:A2 *143:10 0.000101133
6 *207:B *213:A2 1.6594e-05
7 *212:B1 *213:A2 7.86847e-05
8 *53:14 *213:A2 1.5254e-05
*RES
1 *212:Y *213:A2 30.2625 
*END

*D_NET *59 0.00102061
*CONN
*I *215:B1 I *D sky130_fd_sc_hd__a21oi_1
*I *214:Y O *D sky130_fd_sc_hd__a31oi_1
*CAP
1 *215:B1 0.000281863
2 *214:Y 0.000281863
3 *215:B1 *214:A1 0.000158371
4 *215:B1 *216:B1 2.41483e-05
5 *215:B1 *147:53 2.16355e-05
6 *215:B1 *147:57 9.82896e-06
7 *215:B1 *148:22 0.000143032
8 *307:D *215:B1 7.50872e-05
9 *12:123 *215:B1 2.47808e-05
*RES
1 *214:Y *215:B1 33.7589 
*END

*D_NET *60 0.000271626
*CONN
*I *217:B I *D sky130_fd_sc_hd__nor3_1
*I *215:Y O *D sky130_fd_sc_hd__a21oi_1
*CAP
1 *217:B 7.49662e-05
2 *215:Y 7.49662e-05
3 *217:A *217:B 6.08467e-05
4 *307:D *217:B 6.08467e-05
*RES
1 *215:Y *217:B 20.4326 
*END

*D_NET *61 0.000431449
*CONN
*I *217:C I *D sky130_fd_sc_hd__nor3_1
*I *216:Y O *D sky130_fd_sc_hd__a21oi_1
*CAP
1 *217:C 0.000179157
2 *216:Y 0.000179157
3 *217:C *216:B1 5.04829e-06
4 *12:123 *217:C 5.53934e-05
5 *12:138 *217:C 1.2693e-05
*RES
1 *216:Y *217:C 31.5405 
*END

*D_NET *62 0.007503
*CONN
*I *219:B I *D sky130_fd_sc_hd__nor2_1
*I *223:A2 I *D sky130_fd_sc_hd__a21oi_1
*I *231:D I *D sky130_fd_sc_hd__nand4_1
*I *229:A2 I *D sky130_fd_sc_hd__a21oi_1
*I *225:B I *D sky130_fd_sc_hd__nor2_1
*I *233:A3 I *D sky130_fd_sc_hd__a31oi_1
*I *227:A3 I *D sky130_fd_sc_hd__a31oi_1
*I *218:X O *D sky130_fd_sc_hd__and4_1
*CAP
1 *219:B 0.00033466
2 *223:A2 0
3 *231:D 7.41966e-05
4 *229:A2 0
5 *225:B 8.25854e-05
6 *233:A3 0.00025288
7 *227:A3 0
8 *218:X 0
9 *62:61 0.000372394
10 *62:48 0.000563796
11 *62:42 0.000464465
12 *62:12 0.000310884
13 *62:8 0.000496614
14 *62:6 0.000491818
15 *219:B *220:B1 2.41274e-06
16 *219:B *141:8 3.88358e-05
17 *219:B *148:57 0.000473094
18 *225:B *221:A1 0
19 *225:B *221:B1 5.92517e-05
20 *225:B *225:A 0.000118166
21 *225:B *226:C 1.61631e-05
22 *231:D *231:C 0.000103983
23 *231:D *150:82 0.000166937
24 *233:A3 *224:A1 4.88955e-05
25 *233:A3 *228:A1 6.08467e-05
26 *233:A3 *228:B1 3.4684e-05
27 *233:A3 *150:25 0.00016845
28 *233:A3 *150:31 0.000191927
29 *233:A3 *151:37 0
30 *233:A3 *152:16 0.000218017
31 *62:8 *218:D 3.5534e-06
32 *62:8 *149:31 0
33 *62:12 *224:A1 0.00033061
34 *62:12 *138:81 7.48797e-05
35 *62:42 *224:B1 2.41274e-06
36 *62:42 *138:81 4.03085e-05
37 *62:42 *149:6 2.65831e-05
38 *62:42 *149:31 1.41689e-05
39 *62:42 *151:37 0
40 *62:48 *221:A2 0
41 *62:48 *221:B1 0.000311593
42 *62:48 *223:A1 8.91956e-05
43 *62:48 *226:C 0
44 *62:48 *141:72 0
45 *62:48 *149:31 3.89332e-06
46 *62:61 *225:A 0.00049055
47 *62:61 *230:C 6.99486e-05
48 *62:61 *150:82 1.67988e-05
49 *219:A *219:B 1.47978e-05
50 *223:B1 *219:B 3.88358e-05
51 *223:B1 *62:48 3.67528e-06
52 *12:198 *62:8 0
53 *12:198 *62:42 0
54 *51:124 *233:A3 6.08467e-05
55 *51:130 *62:42 0.00031994
56 *51:130 *62:48 1.44611e-05
57 *51:140 *219:B 0.000364919
58 *53:48 *219:B 6.50727e-05
*RES
1 *218:X *62:6 13.8 
2 *62:6 *62:8 3.07775 
3 *62:8 *62:12 7.99641 
4 *62:12 *227:A3 9.3 
5 *62:12 *233:A3 27.3149 
6 *62:8 *62:42 13.0139 
7 *62:42 *62:48 15.3998 
8 *62:48 *225:B 12.2659 
9 *62:48 *62:61 11.285 
10 *62:61 *229:A2 9.3 
11 *62:61 *231:D 12.2418 
12 *62:42 *223:A2 9.3 
13 *62:6 *219:B 23.6837 
*END

*D_NET *63 0.000243178
*CONN
*I *220:B1 I *D sky130_fd_sc_hd__a21oi_1
*I *219:Y O *D sky130_fd_sc_hd__nor2_1
*CAP
1 *220:B1 0.000113404
2 *219:Y 0.000113404
3 *220:B1 *226:B 3.18811e-06
4 *219:A *220:B1 6.13007e-06
5 *219:B *220:B1 2.41274e-06
6 *53:48 *220:B1 4.63871e-06
*RES
1 *219:Y *220:B1 20.4567 
*END

*D_NET *64 0.00116911
*CONN
*I *222:B I *D sky130_fd_sc_hd__nor3_1
*I *220:Y O *D sky130_fd_sc_hd__a21oi_1
*CAP
1 *222:B 0.000482785
2 *220:Y 0.000482785
3 *222:B *226:B 2.51873e-05
4 *222:B *328:A 4.11538e-05
5 *222:B *138:81 7.75523e-06
6 *223:B1 *222:B 9.12246e-05
7 *12:138 *222:B 3.82228e-05
*RES
1 *220:Y *222:B 37.8448 
*END

*D_NET *65 0.00199621
*CONN
*I *222:C I *D sky130_fd_sc_hd__nor3_1
*I *221:Y O *D sky130_fd_sc_hd__a31oi_1
*CAP
1 *222:C 0.000559109
2 *221:Y 0.000559109
3 *222:C *221:A1 6.73351e-05
4 *222:C *221:A3 0.000173161
5 *222:C *226:C 6.50727e-05
6 *222:C *305:CLK 0
7 *222:C *306:CLK 0
8 *306:D *222:C 0.000153225
9 *307:D *222:C 0.000349931
10 *12:138 *222:C 6.92705e-05
*RES
1 *221:Y *222:C 42.2355 
*END

*D_NET *66 0.000622269
*CONN
*I *224:B1 I *D sky130_fd_sc_hd__a21oi_1
*I *223:Y O *D sky130_fd_sc_hd__a21oi_1
*CAP
1 *224:B1 0.000240913
2 *223:Y 0.000240913
3 *224:B1 *226:B 5.04829e-06
4 *224:B1 *138:81 2.57847e-05
5 *224:B1 *149:6 7.34569e-06
6 *223:B1 *224:B1 4.01437e-05
7 *51:130 *224:B1 5.65074e-05
8 *51:132 *224:B1 3.20069e-06
9 *62:42 *224:B1 2.41274e-06
*RES
1 *223:Y *224:B1 32.8185 
*END

*D_NET *67 0.00136555
*CONN
*I *226:B I *D sky130_fd_sc_hd__nor3_1
*I *224:Y O *D sky130_fd_sc_hd__a21oi_1
*CAP
1 *226:B 0.000477873
2 *224:Y 0.000477873
3 *226:B *220:A1 5.04829e-06
4 *226:B *226:C 2.63749e-06
5 *226:B *138:81 2.60273e-07
6 *226:B *141:8 0
7 *226:B *147:88 0.000114039
8 *220:B1 *226:B 3.18811e-06
9 *222:B *226:B 2.51873e-05
10 *223:B1 *226:B 1.55027e-05
11 *224:B1 *226:B 5.04829e-06
12 *51:132 *226:B 2.09442e-05
13 *53:48 *226:B 0.000217951
*RES
1 *224:Y *226:B 36.4823 
*END

*D_NET *68 0.00193916
*CONN
*I *226:C I *D sky130_fd_sc_hd__nor3_1
*I *225:Y O *D sky130_fd_sc_hd__nor2_1
*CAP
1 *226:C 0.000518101
2 *225:Y 0.000518101
3 *226:C *221:A2 0.000293752
4 *226:C *221:B1 1.41291e-05
5 *226:C *141:8 0.000188828
6 *226:C *141:72 0.000309548
7 *222:C *226:C 6.50727e-05
8 *225:B *226:C 1.61631e-05
9 *226:B *226:C 2.63749e-06
10 *307:D *226:C 3.63356e-06
11 *53:48 *226:C 9.19886e-06
12 *62:48 *226:C 0
*RES
1 *225:Y *226:C 43.8349 
*END

*D_NET *69 0.000409627
*CONN
*I *228:B1 I *D sky130_fd_sc_hd__a21oi_1
*I *227:Y O *D sky130_fd_sc_hd__a31oi_1
*CAP
1 *228:B1 0.000115872
2 *227:Y 0.000115872
3 *228:B1 *151:37 5.15741e-05
4 *233:A3 *228:B1 3.4684e-05
5 *234:A *228:B1 2.65667e-05
6 *51:130 *228:B1 6.50586e-05
*RES
1 *227:Y *228:B1 30.9859 
*END

*D_NET *70 0.00036947
*CONN
*I *230:B I *D sky130_fd_sc_hd__nor3_1
*I *228:Y O *D sky130_fd_sc_hd__a21oi_1
*CAP
1 *230:B 0.000137762
2 *228:Y 0.000137762
3 *234:A *230:B 6.93887e-05
4 *12:198 *230:B 1.65872e-05
5 *51:130 *230:B 7.97098e-06
*RES
1 *228:Y *230:B 21.0113 
*END

*D_NET *71 0.000866168
*CONN
*I *230:C I *D sky130_fd_sc_hd__nor3_1
*I *229:Y O *D sky130_fd_sc_hd__a21oi_1
*CAP
1 *230:C 0.000310594
2 *229:Y 0.000310594
3 *230:C *151:37 1.18802e-05
4 *230:C *151:74 4.10689e-05
5 *308:D *230:C 0.000122083
6 *62:61 *230:C 6.99486e-05
*RES
1 *229:Y *230:C 35.0019 
*END

*D_NET *72 0.00350936
*CONN
*I *235:B I *D sky130_fd_sc_hd__nor2_1
*I *238:A2 I *D sky130_fd_sc_hd__a211oi_1
*I *239:C I *D sky130_fd_sc_hd__nor3_1
*I *232:B2 I *D sky130_fd_sc_hd__a22oi_1
*I *231:Y O *D sky130_fd_sc_hd__nand4_1
*CAP
1 *235:B 0.00031885
2 *238:A2 0.00010271
3 *239:C 0.000243436
4 *232:B2 3.77491e-05
5 *231:Y 0.000247422
6 *72:23 0.000609366
7 *72:10 0.000496964
8 *72:8 0.000762267
9 *232:B2 *231:A 0
10 *232:B2 *232:A1 3.5534e-06
11 *232:B2 *138:67 7.12632e-06
12 *235:B *231:A 0
13 *239:C *232:A1 0
14 *239:C *239:B 6.50727e-05
15 *239:C *309:CLK 0.000217812
16 *239:C *123:19 9.35753e-06
17 *239:C *123:32 4.57311e-05
18 *239:C *138:67 0
19 *239:C *152:6 1.41307e-05
20 *72:10 *231:A 0
21 *241:A1 *239:C 0
22 *51:118 *238:A2 1.75125e-05
23 *51:118 *72:23 7.64586e-05
24 *51:124 *72:23 0.000233844
*RES
1 *231:Y *72:8 17.2964 
2 *72:8 *72:10 4.73876 
3 *72:10 *232:B2 14.8015 
4 *72:10 *72:23 9.10562 
5 *72:23 *239:C 25.426 
6 *72:23 *238:A2 11.1567 
7 *72:8 *235:B 21.4862 
*END

*D_NET *73 0.000258889
*CONN
*I *234:B I *D sky130_fd_sc_hd__nor3_1
*I *232:Y O *D sky130_fd_sc_hd__a22oi_1
*CAP
1 *234:B 6.44131e-05
2 *232:Y 6.44131e-05
3 *234:A *234:B 0.000115934
4 *51:124 *234:B 1.41291e-05
*RES
1 *232:Y *234:B 20.4326 
*END

*D_NET *74 0.000385532
*CONN
*I *234:C I *D sky130_fd_sc_hd__nor3_1
*I *233:Y O *D sky130_fd_sc_hd__a31oi_1
*CAP
1 *234:C 5.97159e-05
2 *233:Y 5.97159e-05
3 *232:B1 *234:C 0
4 *234:A *234:C 0.000157645
5 *51:124 *234:C 0.000108455
*RES
1 *233:Y *234:C 21.7588 
*END

*D_NET *75 0.000431177
*CONN
*I *236:B I *D sky130_fd_sc_hd__nor2_1
*I *241:A2 I *D sky130_fd_sc_hd__a21oi_1
*I *235:Y O *D sky130_fd_sc_hd__nor2_1
*CAP
1 *236:B 8.44393e-06
2 *241:A2 0
3 *235:Y 0.000119001
4 *75:8 0.000127445
5 *236:B *237:B1 1.41291e-05
6 *236:B *243:B 3.14978e-05
7 *75:8 *237:B1 2.65831e-05
8 *75:8 *243:B 9.82896e-06
9 *236:A *75:8 1.03434e-05
10 *241:A1 *75:8 8.39059e-05
*RES
1 *235:Y *75:8 12.8205 
2 *75:8 *241:A2 9.3 
3 *75:8 *236:B 10.0234 
*END

*D_NET *76 0.000792482
*CONN
*I *237:B1 I *D sky130_fd_sc_hd__a21oi_1
*I *236:Y O *D sky130_fd_sc_hd__nor2_1
*CAP
1 *237:B1 0.000259966
2 *236:Y 0.000259966
3 *237:B1 *176:A 1.50633e-05
4 *237:B1 *241:B1 7.26733e-05
5 *237:B1 *153:10 2.47663e-05
6 *236:B *237:B1 1.41291e-05
7 *310:D *237:B1 0.000119335
8 *75:8 *237:B1 2.65831e-05
*RES
1 *236:Y *237:B1 34.032 
*END

*D_NET *77 0.000375901
*CONN
*I *238:B1 I *D sky130_fd_sc_hd__a211oi_1
*I *237:Y O *D sky130_fd_sc_hd__a21oi_1
*CAP
1 *238:B1 0.00010343
2 *237:Y 0.00010343
3 *51:118 *238:B1 0.000169041
*RES
1 *237:Y *238:B1 20.4326 
*END

*D_NET *78 0.00760515
*CONN
*I *246:A I *D sky130_fd_sc_hd__nand2_1
*I *240:B I *D sky130_fd_sc_hd__nor2_1
*I *250:A2 I *D sky130_fd_sc_hd__a21oi_1
*I *252:D I *D sky130_fd_sc_hd__nand4_1
*I *248:A3 I *D sky130_fd_sc_hd__a31oi_1
*I *253:A4 I *D sky130_fd_sc_hd__a41oi_1
*I *254:A4 I *D sky130_fd_sc_hd__a41oi_1
*I *239:Y O *D sky130_fd_sc_hd__nor3_1
*CAP
1 *246:A 0.000271993
2 *240:B 0
3 *250:A2 0.00030219
4 *252:D 0
5 *248:A3 0.000276129
6 *253:A4 0.000120515
7 *254:A4 4.53055e-05
8 *239:Y 0.000325139
9 *78:69 0.000344967
10 *78:67 0.000616102
11 *78:30 0.00051158
12 *78:26 0.000500069
13 *78:22 0.000966297
14 *246:A *242:B 0.000116267
15 *246:A *243:C 0.000107496
16 *248:A3 *146:37 0.000323107
17 *248:A3 *155:54 2.02035e-05
18 *250:A2 *247:A1 0.000217937
19 *250:A2 *250:B1 6.34612e-05
20 *253:A4 *239:A 6.34651e-06
21 *253:A4 *253:A2 7.86825e-06
22 *253:A4 *146:37 0.000329655
23 *254:A4 *123:19 0.000101148
24 *78:22 *309:CLK 2.85139e-05
25 *78:22 *142:45 1.00981e-05
26 *78:26 *175:A 0
27 *78:26 *176:A 0
28 *78:26 *253:A2 9.98029e-06
29 *78:26 *145:55 0.000116971
30 *78:26 *154:22 0
31 *78:30 *253:A1 0.000127708
32 *78:30 *253:A2 2.47853e-05
33 *78:30 *145:55 8.01987e-05
34 *78:69 *242:B 4.70559e-05
35 *238:C1 *78:22 0.000266832
36 *238:C1 *78:67 0.000352405
37 *243:A *246:A 8.60778e-05
38 *243:A *78:67 0.000107496
39 *243:A *78:69 8.03393e-06
40 *247:B1 *250:A2 0.000107496
41 *249:A2 *78:30 3.88213e-05
42 *253:B1 *253:A4 1.07248e-05
43 *312:D *250:A2 0.000105822
44 *312:D *78:69 2.41267e-05
45 *12:325 *250:A2 4.53287e-05
46 *12:325 *78:69 7.05714e-06
47 *51:93 *78:30 6.38243e-05
48 *51:106 *78:26 0.000217455
49 *51:207 *246:A 1.8872e-05
50 *52:23 *254:A4 0.000125695
*RES
1 *239:Y *254:A4 29.8472 
2 *239:Y *78:22 13.9056 
3 *78:22 *78:26 15.4675 
4 *78:26 *78:30 7.52588 
5 *78:30 *253:A4 18.0209 
6 *78:30 *248:A3 18.2504 
7 *78:26 *252:D 13.8 
8 *78:22 *78:67 9.66022 
9 *78:67 *78:69 1.41674 
10 *78:69 *250:A2 22.7141 
11 *78:69 *240:B 13.8 
12 *78:67 *246:A 20.6717 
*END

*D_NET *79 0.00181757
*CONN
*I *242:B I *D sky130_fd_sc_hd__nor2_1
*I *244:A2 I *D sky130_fd_sc_hd__o21ai_0
*I *240:Y O *D sky130_fd_sc_hd__nor2_1
*CAP
1 *242:B 0.000192474
2 *244:A2 0.000228138
3 *240:Y 0.000420612
4 *242:B *243:B 2.87296e-05
5 *242:B *243:C 5.51483e-06
6 *242:B *142:8 0
7 *242:B *155:39 4.45999e-05
8 *244:A2 *247:A1 5.41377e-05
9 *244:A2 *247:A2 5.41377e-05
10 *244:A2 *155:33 0.000148652
11 *244:A2 *155:39 0.000158371
12 *243:A *242:B 0.000120767
13 *246:A *242:B 0.000116267
14 *312:D *242:B 4.71765e-06
15 *12:325 *242:B 3.06627e-05
16 *51:207 *242:B 0.000162739
17 *78:69 *242:B 4.70559e-05
*RES
1 *240:Y *244:A2 32.0979 
2 *240:Y *242:B 34.2036 
*END

*D_NET *80 0.00212576
*CONN
*I *243:B I *D sky130_fd_sc_hd__nor3_1
*I *241:Y O *D sky130_fd_sc_hd__a21oi_1
*CAP
1 *243:B 0.000825446
2 *241:Y 0.000825446
3 *243:B *243:C 0.000141799
4 *243:B *312:CLK 0
5 *243:B *142:8 2.15266e-05
6 *243:B *142:67 3.98412e-05
7 *236:A *243:B 2.86705e-05
8 *236:B *243:B 3.14978e-05
9 *241:A1 *243:B 6.5807e-05
10 *242:B *243:B 2.87296e-05
11 *311:D *243:B 9.96342e-05
12 *312:D *243:B 0
13 *51:207 *243:B 7.5301e-06
14 *75:8 *243:B 9.82896e-06
*RES
1 *241:Y *243:B 44.6965 
*END

*D_NET *81 0.000931751
*CONN
*I *243:C I *D sky130_fd_sc_hd__nor3_1
*I *242:Y O *D sky130_fd_sc_hd__nor2_1
*CAP
1 *243:C 0.000281212
2 *242:Y 0.000281212
3 *242:B *243:C 5.51483e-06
4 *243:B *243:C 0.000141799
5 *246:A *243:C 0.000107496
6 *51:207 *243:C 0.000114518
*RES
1 *242:Y *243:C 24.773 
*END

*D_NET *82 0.000916236
*CONN
*I *247:A1 I *D sky130_fd_sc_hd__a21oi_1
*I *244:Y O *D sky130_fd_sc_hd__o21ai_0
*CAP
1 *247:A1 0.000213086
2 *244:Y 0.000213086
3 *247:A1 *247:A2 4.37999e-05
4 *247:A1 *250:A1 0.000148144
5 *247:A1 *155:10 2.6046e-05
6 *244:A2 *247:A1 5.41377e-05
7 *250:A2 *247:A1 0.000217937
*RES
1 *244:Y *247:A1 33.065 
*END

*D_NET *83 0.000589464
*CONN
*I *246:B I *D sky130_fd_sc_hd__nand2_1
*I *245:Y O *D sky130_fd_sc_hd__nor2_1
*CAP
1 *246:B 0.000146918
2 *245:Y 0.000146918
3 *246:B *247:A2 7.50872e-05
4 *246:B *155:10 0
5 *246:B *155:39 4.91225e-06
6 *240:A *246:B 2.41274e-06
7 *244:A1 *246:B 0.000213216
*RES
1 *245:Y *246:B 31.5405 
*END

*D_NET *84 0.000743872
*CONN
*I *247:A2 I *D sky130_fd_sc_hd__a21oi_1
*I *246:Y O *D sky130_fd_sc_hd__nand2_1
*CAP
1 *247:A2 0.000234358
2 *246:Y 0.000234358
3 *247:A2 *250:A1 1.52522e-05
4 *247:A2 *155:10 2.64881e-05
5 *236:A *247:A2 1.46079e-05
6 *244:A1 *247:A2 7.77309e-06
7 *244:A2 *247:A2 5.41377e-05
8 *246:B *247:A2 7.50872e-05
9 *247:A1 *247:A2 4.37999e-05
10 *247:B1 *247:A2 3.20069e-06
11 *53:134 *247:A2 3.48089e-05
*RES
1 *246:Y *247:A2 33.9021 
*END

*D_NET *85 0.000647867
*CONN
*I *249:B1 I *D sky130_fd_sc_hd__a21oi_1
*I *248:Y O *D sky130_fd_sc_hd__a31oi_1
*CAP
1 *249:B1 0.00018892
2 *248:Y 0.00018892
3 *249:B1 *249:A1 2.04806e-05
4 *249:B1 *251:B 7.50722e-05
5 *249:B1 *286:A2 3.20069e-06
6 *249:B1 *144:23 0.000171273
*RES
1 *248:Y *249:B1 31.6798 
*END

*D_NET *86 0.000698866
*CONN
*I *251:B I *D sky130_fd_sc_hd__nor3_1
*I *249:Y O *D sky130_fd_sc_hd__a21oi_1
*CAP
1 *251:B 0.000149011
2 *249:Y 0.000149011
3 *251:B *249:A1 7.50872e-05
4 *251:B *313:CLK 6.66393e-05
5 *251:B *155:54 0
6 *249:A2 *251:B 1.96267e-05
7 *249:B1 *251:B 7.50722e-05
8 *251:A *251:B 1.2693e-05
9 *313:D *251:B 0.000151726
*RES
1 *249:Y *251:B 32.959 
*END

*D_NET *87 0.000692148
*CONN
*I *251:C I *D sky130_fd_sc_hd__nor3_1
*I *250:Y O *D sky130_fd_sc_hd__a21oi_1
*CAP
1 *251:C 0.000216404
2 *250:Y 0.000216404
3 *251:C *250:B1 2.65831e-05
4 *251:C *313:CLK 0.000153225
5 *251:C *146:16 0
6 *247:B1 *251:C 8.62625e-06
7 *53:134 *251:C 7.09051e-05
*RES
1 *250:Y *251:C 33.8927 
*END

*D_NET *88 0.000411936
*CONN
*I *258:C I *D sky130_fd_sc_hd__or3_1
*I *252:Y O *D sky130_fd_sc_hd__nand4_1
*CAP
1 *258:C 6.29384e-05
2 *252:Y 6.29384e-05
3 *258:C *252:A 5.19451e-05
4 *258:C *146:22 6.50727e-05
5 *258:C *155:84 0.000169041
6 *255:A *258:C 0
*RES
1 *252:Y *258:C 21.4212 
*END

*D_NET *89 0.00140093
*CONN
*I *257:A2 I *D sky130_fd_sc_hd__o21ai_0
*I *255:B I *D sky130_fd_sc_hd__nor2_1
*I *253:Y O *D sky130_fd_sc_hd__a41oi_1
*CAP
1 *257:A2 0.000258408
2 *255:B 0.000172733
3 *253:Y 0.000431142
4 *255:B *239:A 5.8261e-05
5 *255:B *253:A2 1.55462e-05
6 *255:B *267:A 6.50586e-05
7 *257:A2 *144:23 0
8 *256:A *255:B 0.000162594
9 *257:A1 *257:A2 1.98545e-05
10 *51:59 *257:A2 2.61012e-05
11 *53:97 *255:B 6.08467e-05
12 *53:110 *255:B 6.50727e-05
13 *53:110 *257:A2 6.53068e-05
*RES
1 *253:Y *255:B 32.2639 
2 *253:Y *257:A2 23.6638 
*END

*D_NET *90 0.000941823
*CONN
*I *256:B I *D sky130_fd_sc_hd__nor3_1
*I *254:Y O *D sky130_fd_sc_hd__a41oi_1
*CAP
1 *256:B 0.000266316
2 *254:Y 0.000266316
3 *256:B *254:B1 0.000165835
4 *256:B *256:C 6.50586e-05
5 *256:B *267:A 4.33819e-05
6 *256:B *144:73 5.04879e-05
7 *256:B *145:16 6.96979e-05
8 *52:10 *256:B 1.47291e-05
*RES
1 *254:Y *256:B 35.4171 
*END

*D_NET *91 0.000482208
*CONN
*I *256:C I *D sky130_fd_sc_hd__nor3_1
*I *255:Y O *D sky130_fd_sc_hd__nor2_1
*CAP
1 *256:C 0.000112255
2 *255:Y 0.000112255
3 *256:C *267:A 0.000117223
4 *255:A *256:C 0
5 *256:A *256:C 7.54161e-05
6 *256:B *256:C 6.50586e-05
*RES
1 *255:Y *256:C 22.1446 
*END

*D_NET *92 0.00213904
*CONN
*I *259:A1 I *D sky130_fd_sc_hd__a21oi_1
*I *257:Y O *D sky130_fd_sc_hd__o21ai_0
*CAP
1 *259:A1 0.000494256
2 *257:Y 0.000494256
3 *259:A1 *250:B1 3.29703e-05
4 *259:A1 *254:A2 0.000113968
5 *259:A1 *257:B1 1.5714e-05
6 *259:A1 *142:12 0.000247261
7 *259:A1 *144:59 0.000290644
8 *259:A1 *146:22 0.000141957
9 *259:A1 *155:39 1.09738e-05
10 *259:A1 *155:52 1.40117e-05
11 *259:A1 *155:54 1.96175e-05
12 *259:B1 *259:A1 6.08467e-05
13 *12:258 *259:A1 8.70182e-05
14 *51:93 *259:A1 4.34944e-05
15 *51:106 *259:A1 7.20535e-05
*RES
1 *257:Y *259:A1 42.6574 
*END

*D_NET *93 0.000791543
*CONN
*I *259:A2 I *D sky130_fd_sc_hd__a21oi_1
*I *258:X O *D sky130_fd_sc_hd__or3_1
*CAP
1 *259:A2 0.000177795
2 *258:X 0.000177795
3 *259:A2 *144:33 7.09666e-06
4 *312:D *259:A2 5.33048e-05
5 *12:287 *259:A2 0.000193761
6 *12:308 *259:A2 7.40869e-05
7 *53:134 *259:A2 0.000107705
*RES
1 *258:X *259:A2 33.5845 
*END

*D_NET *94 0.000611241
*CONN
*I *261:C I *D sky130_fd_sc_hd__nand4b_1
*I *260:Y O *D sky130_fd_sc_hd__nor4b_1
*CAP
1 *261:C 0.000160824
2 *260:Y 0.000160824
3 *261:C *263:A 9.24241e-05
4 *261:C *147:99 0.000143032
5 *261:C *150:45 5.41377e-05
*RES
1 *260:Y *261:C 31.5405 
*END

*D_NET *95 0.00215947
*CONN
*I *262:A2 I *D sky130_fd_sc_hd__o21ai_0
*I *261:Y O *D sky130_fd_sc_hd__nand4b_1
*CAP
1 *262:A2 0.000493421
2 *261:Y 0.000493421
3 *262:A2 *262:B1 0.000113188
4 *262:A2 *264:B 0.000148129
5 *262:A2 *265:A3 0.000417876
6 *262:A2 *267:C 0.00012568
7 *262:A2 *267:D 3.14199e-05
8 *262:A2 *268:A1 9.80653e-05
9 *262:A2 *268:A2 5.74968e-05
10 *262:A2 *133:36 0
11 *262:A2 *138:67 5.82788e-05
12 *262:A2 *159:33 7.97944e-05
13 *262:A2 *171:56 4.27003e-05
14 *227:B1 *262:A2 0
15 *12:179 *262:A2 0
*RES
1 *261:Y *262:A2 46.2137 
*END

*D_NET *96 0.000459878
*CONN
*I *268:A1 I *D sky130_fd_sc_hd__a21oi_1
*I *262:Y O *D sky130_fd_sc_hd__o21ai_0
*CAP
1 *268:A1 0.000148075
2 *262:Y 0.000148075
3 *268:A1 *262:B1 6.56617e-05
4 *262:A2 *268:A1 9.80653e-05
5 *12:179 *268:A1 0
*RES
1 *262:Y *268:A1 32.3388 
*END

*D_NET *97 0.00165302
*CONN
*I *265:A2 I *D sky130_fd_sc_hd__a31oi_1
*I *263:Y O *D sky130_fd_sc_hd__nor3b_1
*CAP
1 *265:A2 0.000391577
2 *263:Y 0.000391577
3 *265:A2 *261:A_N 1.2693e-05
4 *265:A2 *261:D 0.000116986
5 *265:A2 *263:A 5.75768e-05
6 *265:A2 *264:D 6.50727e-05
7 *265:A2 *265:A3 2.65831e-05
8 *265:A2 *150:31 0.0001126
9 *265:A2 *150:45 2.29151e-05
10 *265:A2 *152:16 4.34661e-06
11 *227:B1 *265:A2 0.000451096
*RES
1 *263:Y *265:A2 38.7714 
*END

*D_NET *98 0.00171439
*CONN
*I *265:A3 I *D sky130_fd_sc_hd__a31oi_1
*I *264:Y O *D sky130_fd_sc_hd__nor4_1
*CAP
1 *265:A3 0.000311154
2 *264:Y 0.000311154
3 *265:A3 *263:C_N 0.000200251
4 *265:A3 *265:A1 1.66626e-05
5 *265:A3 *265:B1 1.66626e-05
6 *265:A3 *267:C 6.29882e-05
7 *265:A3 *138:67 0
8 *265:A3 *147:99 0.000268165
9 *265:A3 *150:25 2.60879e-06
10 *265:A3 *150:45 1.78995e-05
11 *265:A3 *152:16 6.23875e-05
12 *227:B1 *265:A3 0
13 *262:A2 *265:A3 0.000417876
14 *265:A2 *265:A3 2.65831e-05
*RES
1 *264:Y *265:A3 39.9849 
*END

*D_NET *99 0.00104372
*CONN
*I *267:C I *D sky130_fd_sc_hd__nor4_1
*I *265:Y O *D sky130_fd_sc_hd__a31oi_1
*CAP
1 *267:C 0.000344231
2 *265:Y 0.000344231
3 *267:C *267:D 7.14746e-05
4 *267:C *309:CLK 1.41976e-05
5 *267:C *138:67 0
6 *267:C *144:73 7.14678e-05
7 *267:C *152:10 1.68951e-06
8 *267:C *152:16 7.76105e-06
9 *262:A2 *267:C 0.00012568
10 *265:A3 *267:C 6.29882e-05
*RES
1 *265:Y *267:C 35.4494 
*END

*D_NET *100 0.00126936
*CONN
*I *267:D I *D sky130_fd_sc_hd__nor4_1
*I *266:Y O *D sky130_fd_sc_hd__nand3_1
*CAP
1 *267:D 0.000437395
2 *266:Y 0.000437395
3 *267:D *261:A_N 0.000110306
4 *267:D *261:B 0.000107496
5 *267:D *261:D 1.37531e-05
6 *267:D *264:B 8.62625e-06
7 *267:D *266:A 1.59634e-05
8 *267:D *138:67 3.55296e-05
9 *262:A2 *267:D 3.14199e-05
10 *267:C *267:D 7.14746e-05
*RES
1 *266:Y *267:D 35.4227 
*END

*D_NET *101 0.0012167
*CONN
*I *268:A2 I *D sky130_fd_sc_hd__a21oi_1
*I *267:Y O *D sky130_fd_sc_hd__nor4_1
*CAP
1 *268:A2 0.000248308
2 *267:Y 0.000248308
3 *268:A2 *205:A 6.50727e-05
4 *268:A2 *260:A 7.14746e-05
5 *268:A2 *264:B 9.2346e-06
6 *268:A2 *138:67 0.00013837
7 *268:A2 *171:60 0.000162663
8 *262:A2 *268:A2 5.74968e-05
9 *51:50 *268:A2 0.000215771
*RES
1 *267:Y *268:A2 35.9717 
*END

*D_NET *102 0.000712814
*CONN
*I *270:B I *D sky130_fd_sc_hd__nor3_1
*I *268:Y O *D sky130_fd_sc_hd__a21oi_1
*CAP
1 *270:B 3.37911e-05
2 *268:Y 3.37911e-05
3 *51:50 *270:B 0.000322616
4 *53:80 *270:B 0.000114523
5 *53:97 *270:B 0.000208093
*RES
1 *268:Y *270:B 22.0964 
*END

*D_NET *103 0.00160853
*CONN
*I *270:C I *D sky130_fd_sc_hd__nor3_1
*I *269:Y O *D sky130_fd_sc_hd__nor2_1
*CAP
1 *270:C 0.000301559
2 *269:Y 0.000301559
3 *270:C *171:66 0.00011818
4 *203:B *270:C 6.92705e-05
5 *316:D *270:C 4.61732e-05
6 *12:179 *270:C 0
7 *49:27 *270:C 0.000334808
8 *51:26 *270:C 0.000318803
9 *51:50 *270:C 0.00011818
*RES
1 *269:Y *270:C 38.9135 
*END

*D_NET *104 0.000201442
*CONN
*I *272:A3 I *D sky130_fd_sc_hd__a31oi_1
*I *271:Y O *D sky130_fd_sc_hd__o21ai_0
*CAP
1 *272:A3 5.32572e-05
2 *271:Y 5.32572e-05
3 *272:A3 *271:B1 2.64831e-05
4 *12:46 *272:A3 0
5 *12:58 *272:A3 5.22818e-05
6 *39:14 *272:A3 1.61631e-05
*RES
1 *271:Y *272:A3 20.4567 
*END

*D_NET *105 0.000435612
*CONN
*I *274:B1 I *D sky130_fd_sc_hd__a31oi_1
*I *273:Y O *D sky130_fd_sc_hd__a31oi_1
*CAP
1 *274:B1 0.000115602
2 *273:Y 0.000115602
3 *274:B1 *273:A1 2.65904e-05
4 *274:B1 *168:22 0.000116971
5 *39:14 *274:B1 6.08467e-05
*RES
1 *273:Y *274:B1 30.5706 
*END

*D_NET *106 0.00108224
*CONN
*I *275:B I *D sky130_fd_sc_hd__nor2_1
*I *274:Y O *D sky130_fd_sc_hd__a31oi_1
*CAP
1 *275:B 0.000472212
2 *274:Y 0.000472212
3 *275:B *274:A1 5.56461e-05
4 *275:B *317:CLK 0
5 *274:A3 *275:B 1.40978e-05
6 *12:92 *275:B 5.22654e-06
7 *12:101 *275:B 6.28454e-05
*RES
1 *274:Y *275:B 35.9773 
*END

*D_NET *107 0.00120396
*CONN
*I *277:A2 I *D sky130_fd_sc_hd__a21oi_1
*I *276:Y O *D sky130_fd_sc_hd__o31ai_1
*CAP
1 *277:A2 0.000320298
2 *276:Y 0.000320298
3 *277:A2 *199:A3 0.000341252
4 *277:A2 *276:A3 7.92757e-06
5 *277:A2 *292:A1 1.61631e-05
6 *277:A2 *169:36 0.000164829
7 *277:A2 *169:72 3.31882e-05
8 *318:D *277:A2 0
9 *319:D *277:A2 0
*RES
1 *276:Y *277:A2 35.9717 
*END

*D_NET *108 0.00500087
*CONN
*I *280:A1 I *D sky130_fd_sc_hd__mux2i_1
*I *286:A2 I *D sky130_fd_sc_hd__a22oi_1
*I *283:A2 I *D sky130_fd_sc_hd__a22oi_1
*I *289:B I *D sky130_fd_sc_hd__nand2_1
*I *278:Y O *D sky130_fd_sc_hd__o21ai_0
*CAP
1 *280:A1 0
2 *286:A2 0.000123995
3 *283:A2 1.92845e-05
4 *289:B 0.000266239
5 *278:Y 4.02566e-05
6 *108:42 0.000589933
7 *108:23 0.000973566
8 *108:8 0.00079484
9 *283:A2 *283:A1 1.09551e-05
10 *283:A2 *157:85 1.90494e-05
11 *286:A2 *286:A1 1.67329e-05
12 *286:A2 *286:B1 3.44547e-05
13 *286:A2 *288:B 0.000123582
14 *289:B *278:B1 0.000253237
15 *289:B *323:CLK 0.000306497
16 *289:B *138:15 4.37445e-05
17 *289:B *140:66 0.00027329
18 *289:B *171:18 4.58666e-05
19 *108:8 *278:B1 9.40059e-05
20 *108:8 *171:18 4.27148e-05
21 *108:23 *282:A 5.99856e-05
22 *108:23 *283:B2 6.50586e-05
23 *108:23 *323:CLK 5.20546e-06
24 *108:23 *157:85 2.41483e-05
25 *108:42 *281:B 0.00013191
26 *108:42 *286:B2 1.51628e-05
27 *108:42 *109:32 0.000158451
28 *108:42 *156:33 0.000109521
29 *108:42 *157:85 0.000114498
30 *249:A2 *286:A2 1.67329e-05
31 *249:B1 *286:A2 3.20069e-06
32 *323:D *108:23 0.000224747
33 *12:258 *108:42 0
*RES
1 *278:Y *108:8 15.632 
2 *108:8 *289:B 24.5267 
3 *108:8 *108:23 15.7609 
4 *108:23 *283:A2 10.0777 
5 *108:23 *108:42 21.289 
6 *108:42 *286:A2 21.9919 
7 *108:42 *280:A1 9.3 
*END

*D_NET *109 0.0034957
*CONN
*I *280:A0 I *D sky130_fd_sc_hd__mux2i_1
*I *286:B1 I *D sky130_fd_sc_hd__a22oi_1
*I *283:B1 I *D sky130_fd_sc_hd__a22oi_1
*I *290:D I *D sky130_fd_sc_hd__nand4_1
*I *279:X O *D sky130_fd_sc_hd__and2_0
*CAP
1 *280:A0 0
2 *286:B1 9.04747e-05
3 *283:B1 0
4 *290:D 1.96375e-05
5 *279:X 0.000167839
6 *109:32 0.000523255
7 *109:19 0.000636427
8 *109:6 0.000391124
9 *286:B1 *286:B2 0.000201445
10 *286:B1 *288:B 0.000134006
11 *290:D *291:A2 4.80635e-06
12 *109:6 *291:A2 5.48616e-05
13 *109:6 *171:18 7.34948e-06
14 *109:19 *282:A 5.68225e-06
15 *109:19 *283:B2 8.62625e-06
16 *109:19 *284:B 0.000118485
17 *109:19 *289:A 0
18 *109:19 *290:A 7.97944e-05
19 *109:19 *291:A2 6.5895e-05
20 *109:19 *156:55 0.000319954
21 *109:19 *157:85 0
22 *109:19 *159:23 0
23 *109:32 *281:B 0.000110306
24 *109:32 *283:B2 0.000230636
25 *109:32 *156:33 3.31745e-05
26 *286:A2 *286:B1 3.44547e-05
27 *12:17 *109:6 9.90116e-05
28 *12:258 *109:19 0
29 *12:258 *109:32 0
30 *108:42 *109:32 0.000158451
*RES
1 *279:X *109:6 14.4602 
2 *109:6 *290:D 9.87872 
3 *109:6 *109:19 12.044 
4 *109:19 *283:B1 13.8 
5 *109:19 *109:32 16.6202 
6 *109:32 *286:B1 22.2083 
7 *109:32 *280:A0 9.3 
*END

*D_NET *110 0.000713489
*CONN
*I *281:B I *D sky130_fd_sc_hd__nor2_1
*I *280:Y O *D sky130_fd_sc_hd__mux2i_1
*CAP
1 *281:B 0.000119516
2 *280:Y 0.000119516
3 *281:B *286:B2 6.68492e-05
4 *281:B *156:33 0.000165391
5 *108:42 *281:B 0.00013191
6 *109:32 *281:B 0.000110306
*RES
1 *280:Y *281:B 32.0951 
*END

*D_NET *111 0.000733332
*CONN
*I *283:B2 I *D sky130_fd_sc_hd__a22oi_1
*I *282:X O *D sky130_fd_sc_hd__xor2_1
*CAP
1 *283:B2 0.000140197
2 *282:X 0.000140197
3 *283:B2 *282:A 0.000148617
4 *12:258 *283:B2 0
5 *108:23 *283:B2 6.50586e-05
6 *109:19 *283:B2 8.62625e-06
7 *109:32 *283:B2 0.000230636
*RES
1 *282:X *283:B2 33.0944 
*END

*D_NET *112 0.00061694
*CONN
*I *284:B I *D sky130_fd_sc_hd__nor2_1
*I *283:Y O *D sky130_fd_sc_hd__a22oi_1
*CAP
1 *284:B 0.000210214
2 *283:Y 0.000210214
3 *284:B *282:A 6.73022e-05
4 *284:B *289:A 0
5 *284:B *157:85 0
6 *12:243 *284:B 1.07248e-05
7 *109:19 *284:B 0.000118485
*RES
1 *283:Y *284:B 32.0951 
*END

*D_NET *113 0.00141288
*CONN
*I *286:B2 I *D sky130_fd_sc_hd__a22oi_1
*I *285:Y O *D sky130_fd_sc_hd__nand3_1
*CAP
1 *286:B2 0.000338405
2 *285:Y 0.000338405
3 *286:B2 *288:B 0.000268092
4 *286:B2 *156:33 0
5 *249:A2 *286:B2 6.36477e-05
6 *281:A *286:B2 0.000120872
7 *281:B *286:B2 6.68492e-05
8 *286:B1 *286:B2 0.000201445
9 *12:258 *286:B2 0
10 *108:42 *286:B2 1.51628e-05
*RES
1 *285:Y *286:B2 38.5337 
*END

*D_NET *114 0.00156605
*CONN
*I *288:B I *D sky130_fd_sc_hd__nor3_1
*I *286:Y O *D sky130_fd_sc_hd__a22oi_1
*CAP
1 *288:B 0.000387903
2 *286:Y 0.000387903
3 *288:B *286:A1 5.04829e-06
4 *288:B *287:A2 0
5 *288:B *320:CLK 0.000175689
6 *288:B *156:23 0
7 *249:A2 *288:B 6.7671e-06
8 *281:A *288:B 1.19971e-05
9 *286:A2 *288:B 0.000123582
10 *286:B1 *288:B 0.000134006
11 *286:B2 *288:B 0.000268092
12 *288:A *288:B 6.50586e-05
*RES
1 *286:Y *288:B 38.632 
*END

*D_NET *115 0.000504427
*CONN
*I *288:C I *D sky130_fd_sc_hd__nor3_1
*I *287:Y O *D sky130_fd_sc_hd__a21oi_1
*CAP
1 *288:C 6.66911e-05
2 *287:Y 6.66911e-05
3 *288:C *287:A1 0.00018584
4 *288:C *287:B1 1.61631e-05
5 *288:A *288:C 0.000169041
*RES
1 *287:Y *288:C 21.9758 
*END

*D_NET *116 0.000136896
*CONN
*I *291:A1 I *D sky130_fd_sc_hd__a21oi_1
*I *289:Y O *D sky130_fd_sc_hd__nand2_1
*CAP
1 *291:A1 5.17079e-05
2 *289:Y 5.17079e-05
3 *291:A1 *290:B 0
4 *12:13 *291:A1 3.34802e-05
*RES
1 *289:Y *291:A1 29.0167 
*END

*D_NET *117 0.000412543
*CONN
*I *291:A2 I *D sky130_fd_sc_hd__a21oi_1
*I *290:Y O *D sky130_fd_sc_hd__nand4_1
*CAP
1 *291:A2 0.000138013
2 *290:Y 0.000138013
3 *291:A2 *290:A 1.09551e-05
4 *290:D *291:A2 4.80635e-06
5 *109:6 *291:A2 5.48616e-05
6 *109:19 *291:A2 6.5895e-05
*RES
1 *290:Y *291:A2 22.6992 
*END

*D_NET *118 0.0010317
*CONN
*I *293:B1 I *D sky130_fd_sc_hd__o41ai_1
*I *292:Y O *D sky130_fd_sc_hd__o31ai_1
*CAP
1 *293:B1 0.00037878
2 *292:Y 0.00037878
3 *293:B1 *292:A1 5.07314e-05
4 *293:B1 *292:A2 1.92336e-05
5 *293:B1 *293:A1 0
6 *293:B1 *324:CLK 0
7 *292:A3 *293:B1 6.92705e-05
8 *292:B1 *293:B1 9.34088e-05
9 *319:D *293:B1 0
10 *324:D *293:B1 4.15008e-05
*RES
1 *292:Y *293:B1 39.015 
*END

*D_NET *119 0.00149602
*CONN
*I *273:A1 I *D sky130_fd_sc_hd__a31oi_1
*I *199:A1 I *D sky130_fd_sc_hd__a31oi_1
*I *172:Y O *D sky130_fd_sc_hd__clkinv_1
*CAP
1 *273:A1 0.000290706
2 *199:A1 0.000240209
3 *172:Y 0
4 *119:6 0.000530916
5 *199:A1 *199:A3 3.31882e-05
6 *199:A1 *168:24 0
7 *199:A1 *168:26 0
8 *199:A1 *168:30 5.66868e-06
9 *199:A1 *169:72 3.18543e-05
10 *273:A1 *273:A3 0.00023636
11 *273:A1 *168:22 6.92705e-05
12 *273:A1 *168:24 0
13 *274:B1 *273:A1 2.65904e-05
14 *12:64 *199:A1 1.44611e-05
15 *12:92 *199:A1 0
16 *12:101 *199:A1 0
17 *12:101 *273:A1 0
18 *39:14 *273:A1 1.67988e-05
*RES
1 *172:Y *119:6 13.8 
2 *119:6 *199:A1 19.2716 
3 *119:6 *273:A1 21.6171 
*END

*D_NET *120 0.00166972
*CONN
*I *193:B I *D sky130_fd_sc_hd__nor3_1
*I *273:B1 I *D sky130_fd_sc_hd__a31oi_1
*I *274:A1 I *D sky130_fd_sc_hd__a31oi_1
*I *173:Y O *D sky130_fd_sc_hd__clkinv_1
*CAP
1 *193:B 0.000161338
2 *273:B1 0.000101843
3 *274:A1 4.61285e-05
4 *173:Y 7.92042e-05
5 *120:10 0.000236902
6 *120:6 0.000329472
7 *193:B *172:A 6.75138e-05
8 *193:B *170:40 1.05106e-05
9 *193:B *170:51 2.57986e-05
10 *193:B *170:62 4.65954e-06
11 *273:B1 *168:22 0.000172707
12 *273:B1 *171:78 5.04879e-05
13 *274:A1 *194:C 6.08467e-05
14 *120:6 *172:A 4.81015e-05
15 *120:10 *168:22 2.95757e-05
16 *120:10 *168:24 9.75356e-05
17 *274:A3 *274:A1 9.14505e-05
18 *275:B *274:A1 5.56461e-05
19 *49:10 *273:B1 0
20 *49:10 *120:10 0
*RES
1 *173:Y *120:6 10.578 
2 *120:6 *120:10 6.74725 
3 *120:10 *274:A1 16.1872 
4 *120:10 *273:B1 17.293 
5 *120:6 *193:B 12.2659 
*END

*D_NET *121 0.00382766
*CONN
*I *269:A I *D sky130_fd_sc_hd__nor2_1
*I *276:A3 I *D sky130_fd_sc_hd__o31ai_1
*I *271:A2 I *D sky130_fd_sc_hd__o21ai_0
*I *174:Y O *D sky130_fd_sc_hd__clkinv_1
*CAP
1 *269:A 0.000353919
2 *276:A3 0.000485316
3 *271:A2 0
4 *174:Y 0.000114956
5 *121:10 0.000759736
6 *121:6 0.000743296
7 *269:A *194:A 7.34948e-06
8 *269:A *194:C 6.2314e-05
9 *269:A *126:23 0
10 *269:A *133:8 3.16065e-06
11 *269:A *159:33 1.79807e-05
12 *276:A3 *178:A 0
13 *276:A3 *178:B 0.00037069
14 *276:A3 *196:A2 3.14978e-05
15 *276:A3 *276:B1 1.00981e-05
16 *276:A3 *302:CLK 0
17 *276:A3 *138:21 6.4622e-05
18 *276:A3 *139:71 0
19 *276:A3 *168:56 1.65872e-05
20 *276:A3 *169:36 5.04829e-06
21 *276:A3 *170:19 3.14544e-05
22 *276:A3 *170:32 0.000132381
23 *121:6 *194:C 7.92757e-06
24 *121:10 *178:A 0
25 *121:10 *170:40 3.39313e-06
26 *274:A3 *121:6 0.000114584
27 *277:A2 *276:A3 7.92757e-06
28 *292:A3 *276:A3 6.08467e-05
29 *39:14 *269:A 2.36494e-05
30 *39:14 *121:10 0
31 *49:10 *121:10 0.000369345
32 *49:27 *269:A 0
33 *49:27 *121:10 2.95757e-05
*RES
1 *174:Y *121:6 11.1326 
2 *121:6 *121:10 12.1455 
3 *121:10 *271:A2 13.8 
4 *121:10 *276:A3 28.0325 
5 *121:6 *269:A 24.5983 
*END

*D_NET *122 0.00193302
*CONN
*I *239:A I *D sky130_fd_sc_hd__nor3_1
*I *175:Y O *D sky130_fd_sc_hd__clkinv_1
*CAP
1 *239:A 0.000375631
2 *175:Y 0.000375631
3 *239:A *175:A 0.000562177
4 *239:A *253:A2 0
5 *239:A *253:A3 3.01634e-05
6 *239:A *154:22 0.000275437
7 *253:A4 *239:A 6.34651e-06
8 *253:B1 *239:A 4.77858e-05
9 *255:B *239:A 5.8261e-05
10 *52:10 *239:A 0.000125708
11 *52:23 *239:A 7.58739e-05
*RES
1 *175:Y *239:A 42.7201 
*END

*D_NET *123 0.00426642
*CONN
*I *235:A I *D sky130_fd_sc_hd__nor2_1
*I *238:A1 I *D sky130_fd_sc_hd__a211oi_1
*I *239:B I *D sky130_fd_sc_hd__nor3_1
*I *266:A I *D sky130_fd_sc_hd__nand3_1
*I *176:Y O *D sky130_fd_sc_hd__clkinv_1
*CAP
1 *235:A 0.000174299
2 *238:A1 0
3 *239:B 4.39592e-05
4 *266:A 0.000622592
5 *176:Y 0.00016035
6 *123:32 0.000276875
7 *123:19 0.000251984
8 *123:6 0.000888392
9 *235:A *241:B1 0.000261068
10 *235:A *154:22 0.00012063
11 *239:B *309:CLK 2.83665e-05
12 *266:A *261:A_N 7.92757e-06
13 *266:A *261:B 1.58551e-05
14 *266:A *261:D 4.12396e-05
15 *266:A *266:B 1.09551e-05
16 *266:A *144:73 3.77925e-05
17 *266:A *147:99 0.000262509
18 *123:6 *254:A2 0.00021569
19 *123:6 *144:73 2.97556e-05
20 *239:C *239:B 6.50727e-05
21 *239:C *123:19 9.35753e-06
22 *239:C *123:32 4.57311e-05
23 *241:A1 *235:A 0.000381699
24 *241:A1 *123:32 6.53377e-05
25 *254:A4 *123:19 0.000101148
26 *267:D *266:A 1.59634e-05
27 *51:118 *235:A 4.31703e-05
28 *52:23 *123:19 2.47663e-05
29 *52:23 *123:32 6.39342e-05
*RES
1 *176:Y *123:6 13.351 
2 *123:6 *266:A 23.9126 
3 *123:6 *123:19 7.57775 
4 *123:19 *239:B 15.078 
5 *123:19 *123:32 7.993 
6 *123:32 *238:A1 9.3 
7 *123:32 *235:A 26.393 
*END

*D_NET *124 0.000467358
*CONN
*I *266:C I *D sky130_fd_sc_hd__nand3_1
*I *177:Y O *D sky130_fd_sc_hd__clkinv_1
*CAP
1 *266:C 4.03648e-05
2 *177:Y 4.03648e-05
3 *266:C *266:B 0.00027103
4 *266:C *147:99 0.000115599
*RES
1 *177:Y *266:C 21.5418 
*END

*D_NET *125 0.0005257
*CONN
*I *196:A2 I *D sky130_fd_sc_hd__a21oi_1
*I *178:Y O *D sky130_fd_sc_hd__nor2_1
*CAP
1 *196:A2 0.000208333
2 *178:Y 0.000208333
3 *196:A2 *178:A 1.43848e-05
4 *196:A2 *300:CLK 1.79196e-05
5 *196:A2 *139:71 4.52324e-05
6 *196:A2 *170:19 0
7 *276:A3 *196:A2 3.14978e-05
*RES
1 *178:Y *196:A2 32.0951 
*END

*D_NET *126 0.00521162
*CONN
*I *265:A1 I *D sky130_fd_sc_hd__a31oi_1
*I *204:A I *D sky130_fd_sc_hd__nor3_1
*I *180:B I *D sky130_fd_sc_hd__nand2_1
*I *179:Y O *D sky130_fd_sc_hd__nor3b_1
*CAP
1 *265:A1 0.00174835
2 *204:A 0
3 *180:B 1.46774e-05
4 *179:Y 0.000150368
5 *126:23 0.0020586
6 *126:6 0.000475294
7 *180:B *180:A 1.08355e-05
8 *180:B *132:8 2.53145e-06
9 *265:A1 *278:B1 0
10 *265:A1 *138:81 5.69282e-05
11 *265:A1 *150:25 1.58826e-05
12 *126:6 *179:B 0.000118166
13 *126:6 *132:8 1.19856e-05
14 *126:6 *169:79 2.15348e-05
15 *126:6 *169:90 5.0715e-05
16 *126:6 *170:62 0.000217937
17 *126:23 *180:A 8.02256e-05
18 *126:23 *195:A 0
19 *126:23 *159:33 0
20 *265:A3 *265:A1 1.66626e-05
21 *269:A *126:23 0
22 *309:D *265:A1 0
23 *12:179 *265:A1 1.58706e-05
24 *12:179 *126:23 0.00014506
*RES
1 *179:Y *126:6 14.4602 
2 *126:6 *180:B 9.87872 
3 *126:6 *126:23 13.0646 
4 *126:23 *204:A 13.8 
5 *126:23 *265:A1 32.4953 
*END

*D_NET *127 0.000944339
*CONN
*I *181:B I *D sky130_fd_sc_hd__nor2_1
*I *272:A1 I *D sky130_fd_sc_hd__a31oi_1
*I *180:Y O *D sky130_fd_sc_hd__nand2_1
*CAP
1 *181:B 0
2 *272:A1 5.31932e-05
3 *180:Y 9.99521e-05
4 *127:10 0.000153145
5 *272:A1 *302:CLK 0.000324936
6 *127:10 *197:A 6.08697e-06
7 *127:10 *134:8 2.692e-05
8 *12:23 *127:10 0
9 *12:46 *272:A1 0.000164172
10 *12:58 *272:A1 0.000115934
*RES
1 *180:Y *127:10 20.5472 
2 *127:10 *272:A1 13.3751 
3 *127:10 *181:B 9.3 
*END

*D_NET *128 0.00663381
*CONN
*I *186:S I *D sky130_fd_sc_hd__mux2_1
*I *182:S I *D sky130_fd_sc_hd__mux2_1
*I *183:S I *D sky130_fd_sc_hd__mux2_1
*I *185:S I *D sky130_fd_sc_hd__mux2_1
*I *184:S I *D sky130_fd_sc_hd__mux2_1
*I *187:S I *D sky130_fd_sc_hd__mux2_1
*I *189:S I *D sky130_fd_sc_hd__mux2_1
*I *188:S I *D sky130_fd_sc_hd__mux2_1
*I *181:Y O *D sky130_fd_sc_hd__nor2_1
*CAP
1 *186:S 0
2 *182:S 5.73425e-05
3 *183:S 0.000236409
4 *185:S 2.06324e-05
5 *184:S 2.06324e-05
6 *187:S 5.29157e-05
7 *189:S 2.06324e-05
8 *188:S 0
9 *181:Y 0.000334832
10 *128:71 0.000489886
11 *128:62 0.000391911
12 *128:53 0.000490681
13 *128:40 0.0004089
14 *128:31 0.000485688
15 *128:27 0.000666237
16 *128:14 0.000597092
17 *182:S *182:A0 2.41483e-05
18 *183:S *183:A0 3.22024e-05
19 *183:S *190:A0 5.01375e-05
20 *128:14 *178:A 0
21 *128:14 *188:A0 0.000122378
22 *128:14 *197:A 3.57773e-05
23 *128:14 *201:A2 0
24 *128:27 *186:A0 1.79672e-05
25 *128:27 *188:A0 3.75233e-05
26 *128:27 *166:12 0.000388217
27 *128:31 *189:A0 1.00937e-05
28 *128:40 *189:A0 1.31764e-05
29 *128:53 *184:A0 1.00937e-05
30 *128:53 *189:A0 9.19886e-06
31 *128:62 *184:A0 7.0656e-05
32 *128:62 *185:A0 2.23124e-05
33 *128:71 *185:A0 7.92757e-06
34 read_en *128:31 1.41976e-05
35 *184:A1 *187:S 6.80864e-05
36 *184:A1 *128:53 0.000250557
37 *186:A1 *128:27 9.34396e-06
38 *188:A1 *128:14 0.000115632
39 *189:A1 *128:31 2.65831e-05
40 *294:D *128:71 6.50586e-05
41 *297:D *128:62 0.00011818
42 *1:22 *128:14 8.22349e-05
43 *1:22 *128:27 0
44 *3:17 *182:S 6.50727e-05
45 *3:17 *128:71 0.000528047
46 *4:17 *183:S 1.19856e-05
47 *12:9 *187:S 0.000153225
*RES
1 *181:Y *128:14 27.9391 
2 *128:14 *188:S 9.3 
3 *128:14 *128:27 17.6476 
4 *128:27 *128:31 8.51196 
5 *128:31 *189:S 9.87872 
6 *128:31 *128:40 1.278 
7 *128:40 *187:S 20.9625 
8 *128:40 *128:53 7.93324 
9 *128:53 *184:S 9.87872 
10 *128:53 *128:62 5.16022 
11 *128:62 *185:S 9.87872 
12 *128:62 *128:71 6.26943 
13 *128:71 *183:S 23.9015 
14 *128:71 *182:S 11.1567 
15 *128:27 *186:S 9.3 
*END

*D_NET *129 0.00234469
*CONN
*I *192:A0 I *D sky130_fd_sc_hd__mux2_1
*I *190:X O *D sky130_fd_sc_hd__mux4_2
*CAP
1 *192:A0 0.000739269
2 *190:X 0.000739269
3 *192:A0 *192:S 5.51483e-06
4 *192:A0 *295:CLK 0.000184886
5 *192:A0 *157:37 0.000330596
6 *192:A0 *161:12 0.000326398
7 *295:D *192:A0 1.87611e-05
*RES
1 *190:X *192:A0 44.3527 
*END

*D_NET *130 0.000416598
*CONN
*I *192:A1 I *D sky130_fd_sc_hd__mux2_1
*I *191:X O *D sky130_fd_sc_hd__mux4_2
*CAP
1 *192:A1 0.000167601
2 *191:X 0.000167601
3 *192:A1 *190:S1 0
4 *192:A1 *191:S0 8.33829e-06
5 *192:A1 *327:A 2.09985e-06
6 *192:A1 *138:49 7.09579e-05
*RES
1 *191:X *192:A1 30.8493 
*END

*D_NET *131 0.00188453
*CONN
*I *201:A1 I *D sky130_fd_sc_hd__a221o_1
*I *192:X O *D sky130_fd_sc_hd__mux2_1
*CAP
1 *201:A1 0.000652601
2 *192:X 0.000652601
3 *201:A1 *192:S 0
4 *201:A1 *201:A2 4.27168e-05
5 *201:A1 *299:CLK 5.05932e-05
6 *201:A1 *157:37 0.000120712
7 *201:A1 *165:10 4.87439e-05
8 *201:B2 *201:A1 0.000251154
9 *299:D *201:A1 6.54102e-05
*RES
1 *192:X *201:A1 37.1431 
*END

*D_NET *132 0.00404527
*CONN
*I *195:B I *D sky130_fd_sc_hd__nand2_1
*I *278:B1 I *D sky130_fd_sc_hd__o21ai_0
*I *193:Y O *D sky130_fd_sc_hd__nor3_1
*CAP
1 *195:B 0
2 *278:B1 0.000992208
3 *193:Y 0.000395545
4 *132:8 0.00138775
5 *278:B1 *194:D_N 2.27135e-05
6 *278:B1 *195:A 3.5534e-06
7 *278:B1 *278:A2 6.50727e-05
8 *278:B1 *138:15 8.58388e-05
9 *278:B1 *138:21 7.92217e-05
10 *278:B1 *138:49 1.33165e-05
11 *278:B1 *138:67 9.634e-05
12 *278:B1 *171:10 4.3116e-06
13 *278:B1 *171:18 9.98029e-06
14 *132:8 *179:A 1.03434e-05
15 *132:8 *169:79 0.000415312
16 *132:8 *169:90 0.000102003
17 *180:B *132:8 2.53145e-06
18 *265:A1 *278:B1 0
19 *289:B *278:B1 0.000253237
20 *108:8 *278:B1 9.40059e-05
21 *126:6 *132:8 1.19856e-05
*RES
1 *193:Y *132:8 16.5581 
2 *132:8 *278:B1 35.3161 
3 *132:8 *195:B 9.3 
*END

*D_NET *133 0.00490698
*CONN
*I *203:A I *D sky130_fd_sc_hd__nor2_1
*I *204:B I *D sky130_fd_sc_hd__nor3_1
*I *279:B I *D sky130_fd_sc_hd__and2_0
*I *201:A2 I *D sky130_fd_sc_hd__a221o_1
*I *194:Y O *D sky130_fd_sc_hd__nor4b_1
*CAP
1 *203:A 0
2 *204:B 8.77643e-05
3 *279:B 8.32058e-05
4 *201:A2 0.000279806
5 *194:Y 0.000590726
6 *133:36 0.000238889
7 *133:10 0.000464852
8 *133:8 0.000843691
9 *201:A2 *197:A 0
10 *204:B *159:33 0.000317707
11 *279:B *180:A 0.000525814
12 *279:B *171:18 1.80122e-05
13 *133:8 *194:A 2.42138e-05
14 *133:8 *194:C 4.81015e-05
15 *133:8 *194:D_N 2.65831e-05
16 *133:36 *138:67 0
17 *201:A1 *201:A2 4.27168e-05
18 *201:B2 *201:A2 3.85049e-05
19 *203:B *204:B 9.62733e-05
20 *204:C *204:B 1.09551e-05
21 *262:A1 *204:B 2.65667e-05
22 *262:A2 *133:36 0
23 *269:A *133:8 3.16065e-06
24 *269:B *204:B 1.09551e-05
25 *302:D *201:A2 0.000149181
26 *1:22 *201:A2 9.92378e-06
27 *1:22 *133:10 0
28 *1:22 *133:36 0
29 *12:17 *279:B 0.000632015
30 *12:23 *201:A2 0.00014702
31 *12:179 *201:A2 2.77564e-05
32 *12:179 *133:10 5.67568e-05
33 *12:179 *133:36 0.000105832
34 *128:14 *201:A2 0
*RES
1 *194:Y *133:8 22.2878 
2 *133:8 *133:10 2.6625 
3 *133:10 *201:A2 21.7939 
4 *133:10 *279:B 20.624 
5 *133:8 *133:36 8.82351 
6 *133:36 *204:B 13.9538 
7 *133:36 *203:A 9.3 
*END

*D_NET *134 0.00126194
*CONN
*I *272:A2 I *D sky130_fd_sc_hd__a31oi_1
*I *197:A I *D sky130_fd_sc_hd__nand2_1
*I *195:Y O *D sky130_fd_sc_hd__nand2_1
*CAP
1 *272:A2 5.2634e-05
2 *197:A 0.000174382
3 *195:Y 6.4468e-05
4 *134:8 0.000291484
5 *197:A *178:A 9.25029e-05
6 *197:A *201:B1 6.92705e-05
7 *134:8 *178:A 3.10924e-05
8 *201:A2 *197:A 0
9 *201:C1 *197:A 6.50586e-05
10 *12:46 *272:A2 6.50586e-05
11 *12:58 *272:A2 0.000169041
12 *39:14 *272:A2 0.000118166
13 *127:10 *197:A 6.08697e-06
14 *127:10 *134:8 2.692e-05
15 *128:14 *197:A 3.57773e-05
*RES
1 *195:Y *134:8 15.632 
2 *134:8 *197:A 18.8469 
3 *134:8 *272:A2 16.1872 
*END

*D_NET *135 0.00125328
*CONN
*I *197:B I *D sky130_fd_sc_hd__nand2_1
*I *196:Y O *D sky130_fd_sc_hd__a21oi_1
*CAP
1 *197:B 0.00034374
2 *196:Y 0.00034374
3 *197:B *178:A 0.000179286
4 *197:B *196:B1 4.30017e-06
5 *197:B *139:71 0.000320287
6 *197:B *139:86 2.65831e-05
7 *188:A1 *197:B 0
8 *198:D *197:B 7.25324e-06
9 *300:D *197:B 1.79807e-05
10 *1:22 *197:B 0
11 *2:17 *197:B 1.01085e-05
*RES
1 *196:Y *197:B 36.6657 
*END

*D_NET *136 0.00050463
*CONN
*I *201:B1 I *D sky130_fd_sc_hd__a221o_1
*I *197:Y O *D sky130_fd_sc_hd__nand2_1
*CAP
1 *201:B1 0.000155967
2 *197:Y 0.000155967
3 *197:A *201:B1 6.92705e-05
4 *201:B2 *201:B1 5.58947e-05
5 *201:C1 *201:B1 6.75302e-05
*RES
1 *197:Y *201:B1 22.651 
*END

*D_NET *137 0.0037312
*CONN
*I *277:A1 I *D sky130_fd_sc_hd__a21oi_1
*I *200:A I *D sky130_fd_sc_hd__nand2_1
*I *293:A4 I *D sky130_fd_sc_hd__o41ai_1
*I *198:X O *D sky130_fd_sc_hd__or4_1
*CAP
1 *277:A1 0.000456623
2 *200:A 0
3 *293:A4 0.000602941
4 *198:X 0
5 *137:21 0.000791967
6 *137:6 0.000938285
7 *277:A1 *271:B1 0.000113968
8 *277:A1 *139:12 2.21765e-05
9 *277:A1 *168:26 1.09738e-05
10 *277:A1 *168:30 2.14693e-05
11 *277:A1 *170:32 0
12 *277:A1 *170:40 2.99929e-05
13 *293:A4 *293:A2 0.000238018
14 *293:A4 *300:CLK 0
15 *137:21 *293:A2 0
16 *137:21 *300:CLK 0
17 *137:21 *139:12 5.22654e-06
18 *137:21 *168:30 0
19 *137:21 *168:32 0
20 *137:21 *168:34 0
21 *137:21 *170:19 7.69281e-05
22 *137:21 *170:32 2.57809e-05
23 *200:B *277:A1 6.80719e-05
24 *293:A3 *293:A4 3.62225e-05
25 *12:58 *277:A1 4.91225e-06
26 *12:60 *277:A1 1.65872e-05
27 *12:88 *277:A1 0.000271058
*RES
1 *198:X *137:6 13.8 
2 *137:6 *293:A4 24.8082 
3 *137:6 *137:21 8.37832 
4 *137:21 *200:A 13.8 
5 *137:21 *277:A1 23.699 
*END

*D_NET *1 0.00334665
*CONN
*P clk I
*I *325:A I *D sky130_fd_sc_hd__clkbuf_4
*CAP
1 clk 0.00137297
2 *325:A 0
3 *1:22 0.00137297
4 *1:22 *178:A 0
5 *1:22 *186:A0 3.34802e-05
6 *1:22 *186:A1 0.000195249
7 *1:22 *188:A1 8.7632e-05
8 *1:22 *197:B 0
9 *1:22 *201:A2 9.92378e-06
10 *1:22 *298:D 3.77659e-05
11 *1:22 *302:D 0
12 *1:22 *13:8 0
13 *1:22 *128:14 8.22349e-05
14 *1:22 *128:27 0
15 *1:22 *133:10 0
16 *1:22 *133:36 0
17 *1:22 *138:15 0
18 *1:22 *138:21 0.000154427
19 *1:22 *138:67 0
20 *1:22 *166:12 0
*RES
1 clk *1:22 38.1372 
2 *1:22 *325:A 13.8 
*END

*D_NET *138 0.0127662
*CONN
*I *329:A I *D sky130_fd_sc_hd__clkbuf_4
*I *328:A I *D sky130_fd_sc_hd__clkbuf_4
*I *327:A I *D sky130_fd_sc_hd__clkbuf_4
*I *326:A I *D sky130_fd_sc_hd__clkbuf_4
*I *325:X O *D sky130_fd_sc_hd__clkbuf_4
*CAP
1 *329:A 0
2 *328:A 0.000122369
3 *327:A 4.45823e-05
4 *326:A 7.19422e-05
5 *325:X 5.87126e-05
6 *138:99 0.000858628
7 *138:81 0.00127904
8 *138:67 0.00320158
9 *138:49 0.00101765
10 *138:21 0.000862864
11 *138:15 0.00205879
12 *138:8 0.00153979
13 *327:A *191:S0 7.45448e-05
14 *138:15 *299:CLK 0
15 *138:15 *323:CLK 0
16 *138:21 *302:CLK 1.69846e-05
17 *138:21 *139:71 4.41618e-05
18 *138:49 *190:S1 0
19 *138:49 *191:A0 1.91858e-05
20 *138:49 *191:S0 6.69554e-05
21 *138:49 *191:S1 3.13756e-05
22 *138:49 *290:B 3.18655e-06
23 *138:49 *140:12 0
24 *138:67 *231:A 2.33103e-06
25 *138:67 *232:A1 0
26 *138:67 *264:B 0
27 *138:67 *267:A 5.39463e-05
28 *138:67 *144:73 0
29 *138:67 *152:50 0
30 *138:67 *171:10 7.08723e-06
31 *138:67 *171:56 2.36494e-05
32 *138:81 *224:A1 8.43572e-05
33 *138:81 *265:B1 2.75197e-06
34 *138:99 *176:A 7.75178e-06
35 *138:99 *142:67 2.23735e-07
36 *192:A1 *327:A 2.09985e-06
37 *192:A1 *138:49 7.09579e-05
38 *201:C1 *326:A 6.73186e-05
39 *222:B *328:A 4.11538e-05
40 *222:B *138:81 7.75523e-06
41 *224:B1 *138:81 2.57847e-05
42 *226:B *138:81 2.60273e-07
43 *232:B2 *138:67 7.12632e-06
44 *239:C *138:67 0
45 *262:A2 *138:67 5.82788e-05
46 *265:A1 *138:81 5.69282e-05
47 *265:A3 *138:67 0
48 *267:C *138:67 0
49 *267:D *138:67 3.55296e-05
50 *268:A2 *138:67 0.00013837
51 *276:A3 *138:21 6.4622e-05
52 *278:B1 *138:15 8.58388e-05
53 *278:B1 *138:21 7.92217e-05
54 *278:B1 *138:49 1.33165e-05
55 *278:B1 *138:67 9.634e-05
56 *289:B *138:15 4.37445e-05
57 *309:D *138:67 3.68867e-05
58 *1:22 *138:15 0
59 *1:22 *138:21 0.000154427
60 *1:22 *138:67 0
61 *12:198 *138:81 0
62 *13:8 *138:15 4.20184e-06
63 *51:207 *138:99 6.43233e-06
64 *62:12 *138:81 7.48797e-05
65 *62:42 *138:81 4.03085e-05
66 *133:36 *138:67 0
*RES
1 *325:X *138:8 15.078 
2 *138:8 *138:15 11.2632 
3 *138:15 *138:21 8.16577 
4 *138:21 *326:A 15.6326 
5 *138:15 *138:49 15.1502 
6 *138:49 *327:A 11.2773 
7 *138:8 *138:67 32.8074 
8 *138:67 *138:81 20.0786 
9 *138:81 *328:A 12.1333 
10 *138:67 *138:99 5.59777 
11 *138:99 *329:A 13.8 
*END

*D_NET *139 0.00866394
*CONN
*I *302:CLK I *D sky130_fd_sc_hd__dfxtp_1
*I *298:CLK I *D sky130_fd_sc_hd__dfxtp_1
*I *301:CLK I *D sky130_fd_sc_hd__dfxtp_1
*I *300:CLK I *D sky130_fd_sc_hd__dfxtp_1
*I *330:A I *D sky130_fd_sc_hd__clkbuf_1
*I *317:CLK I *D sky130_fd_sc_hd__dfxtp_1
*I *318:CLK I *D sky130_fd_sc_hd__dfxtp_1
*I *319:CLK I *D sky130_fd_sc_hd__dfxtp_1
*I *324:CLK I *D sky130_fd_sc_hd__dfxtp_1
*I *326:X O *D sky130_fd_sc_hd__clkbuf_4
*CAP
1 *302:CLK 0.000290401
2 *298:CLK 0
3 *301:CLK 0.000273054
4 *300:CLK 0.000320917
5 *330:A 0
6 *317:CLK 0.000513342
7 *318:CLK 0
8 *319:CLK 3.62164e-05
9 *324:CLK 0.000225591
10 *326:X 0
11 *139:86 0.000307868
12 *139:71 0.000565758
13 *139:69 0.000578515
14 *139:44 0.000553368
15 *139:22 0.000509201
16 *139:20 0.000878944
17 *139:12 0.00081688
18 *139:4 0.000303443
19 *301:CLK *191:A0 1.43983e-05
20 *302:CLK *178:A 3.25371e-05
21 *139:12 *170:32 6.94257e-05
22 *139:20 *169:8 6.50586e-05
23 *139:71 *178:A 2.97007e-05
24 *139:71 *170:19 0
25 *196:A2 *300:CLK 1.79196e-05
26 *196:A2 *139:71 4.52324e-05
27 *197:B *139:71 0.000320287
28 *197:B *139:86 2.65831e-05
29 *201:C1 *139:12 0.000103139
30 *201:C1 *139:20 0.000142438
31 *201:C1 *139:69 4.0752e-05
32 *272:A1 *302:CLK 0.000324936
33 *275:B *317:CLK 0
34 *276:A3 *302:CLK 0
35 *276:A3 *139:71 0
36 *277:A1 *139:12 2.21765e-05
37 *293:A4 *300:CLK 0
38 *293:B1 *324:CLK 0
39 *298:D *301:CLK 0.000223132
40 *300:D *300:CLK 0
41 *300:D *139:71 0
42 *318:D *317:CLK 0
43 *318:D *139:20 0.000333559
44 *319:D *317:CLK 0
45 *319:D *324:CLK 0
46 *319:D *139:22 0
47 *319:D *139:44 0
48 *2:17 *301:CLK 0.000494062
49 *2:17 *139:86 2.42273e-05
50 *12:46 *302:CLK 6.61199e-05
51 *12:58 *302:CLK 2.83829e-05
52 *12:92 *317:CLK 0
53 *12:101 *317:CLK 0
54 *137:21 *300:CLK 0
55 *137:21 *139:12 5.22654e-06
56 *138:21 *302:CLK 1.69846e-05
57 *138:21 *139:71 4.41618e-05
*RES
1 *326:X *139:4 9.3 
2 *139:4 *139:12 13.3586 
3 *139:12 *139:20 18.7268 
4 *139:20 *139:22 5.98452 
5 *139:22 *324:CLK 19.1256 
6 *139:22 *319:CLK 14.5234 
7 *139:20 *139:44 1.00149 
8 *139:44 *318:CLK 13.8 
9 *139:44 *317:CLK 26.8438 
10 *139:12 *330:A 9.3 
11 *139:4 *139:69 5.778 
12 *139:69 *139:71 7.64553 
13 *139:71 *300:CLK 21.3384 
14 *139:71 *139:86 5.778 
15 *139:86 *301:CLK 18.9212 
16 *139:86 *298:CLK 9.3 
17 *139:69 *302:CLK 21.9255 
*END

*D_NET *140 0.00939453
*CONN
*I *320:CLK I *D sky130_fd_sc_hd__dfxtp_1
*I *322:CLK I *D sky130_fd_sc_hd__dfxtp_1
*I *321:CLK I *D sky130_fd_sc_hd__dfxtp_1
*I *323:CLK I *D sky130_fd_sc_hd__dfxtp_1
*I *299:CLK I *D sky130_fd_sc_hd__dfxtp_1
*I *295:CLK I *D sky130_fd_sc_hd__dfxtp_1
*I *297:CLK I *D sky130_fd_sc_hd__dfxtp_1
*I *294:CLK I *D sky130_fd_sc_hd__dfxtp_1
*I *296:CLK I *D sky130_fd_sc_hd__dfxtp_1
*I *327:X O *D sky130_fd_sc_hd__clkbuf_4
*CAP
1 *320:CLK 0.000308041
2 *322:CLK 0
3 *321:CLK 0
4 *323:CLK 0.000308235
5 *299:CLK 0.000285996
6 *295:CLK 5.80892e-05
7 *297:CLK 0
8 *294:CLK 0.000485307
9 *296:CLK 0.000105889
10 *327:X 0
11 *140:103 0.000641203
12 *140:66 0.000865053
13 *140:62 0.000619002
14 *140:58 0.000757743
15 *140:45 0.00022066
16 *140:27 0.000763341
17 *140:12 0.00074214
18 *140:6 0.000444388
19 *295:CLK *192:S 0.000424623
20 *296:CLK *191:A0 4.30017e-06
21 *320:CLK *192:S 1.19971e-05
22 *320:CLK *285:A 1.73012e-05
23 *320:CLK *286:A1 0
24 *320:CLK *287:A2 0
25 *320:CLK *158:55 0
26 *323:CLK *171:18 7.14746e-05
27 *140:12 *190:A2 0
28 *140:12 *190:A3 0
29 *140:12 *190:S0 0
30 *140:12 *190:S1 3.31882e-05
31 *140:27 *184:A0 0
32 *140:27 *187:A0 0
33 *140:45 *190:S0 0
34 *140:45 *190:S1 0.000111358
35 *140:45 *157:10 3.31882e-05
36 *140:58 *190:S0 0
37 *140:58 *157:10 0.000111358
38 *140:62 *157:8 1.83795e-06
39 *140:66 *289:A 0.000324027
40 *140:103 *157:8 3.59374e-05
41 *140:103 *158:10 1.00981e-05
42 *192:A0 *295:CLK 0.000184886
43 *201:A1 *299:CLK 5.05932e-05
44 *281:A *320:CLK 4.73113e-06
45 *288:B *320:CLK 0.000175689
46 *289:B *323:CLK 0.000306497
47 *289:B *140:66 0.00027329
48 *296:D *296:CLK 0.000100285
49 *296:D *140:27 0
50 *297:D *294:CLK 2.13584e-05
51 *297:D *140:27 3.90891e-05
52 *320:D *320:CLK 6.08467e-05
53 *321:D *140:62 5.68237e-06
54 *322:D *320:CLK 0.000161095
55 *6:15 *140:27 0
56 *12:9 *299:CLK 0
57 *12:9 *323:CLK 0
58 *12:13 *323:CLK 0
59 *12:243 *140:62 2.01874e-05
60 *12:243 *140:66 0.000120742
61 *13:8 *299:CLK 6.85778e-05
62 *108:23 *323:CLK 5.20546e-06
63 *138:15 *299:CLK 0
64 *138:15 *323:CLK 0
65 *138:49 *140:12 0
*RES
1 *327:X *140:6 13.8 
2 *140:6 *140:12 13.2898 
3 *140:12 *296:CLK 12.2418 
4 *140:12 *140:27 15.5632 
5 *140:27 *294:CLK 19.9098 
6 *140:27 *297:CLK 9.3 
7 *140:6 *140:45 2.6625 
8 *140:45 *295:CLK 18.4056 
9 *140:45 *140:58 6.74725 
10 *140:58 *140:62 5.59426 
11 *140:62 *140:66 14.0971 
12 *140:66 *299:CLK 19.4231 
13 *140:66 *323:CLK 22.0512 
14 *140:62 *321:CLK 9.3 
15 *140:58 *140:103 6.31766 
16 *140:103 *322:CLK 9.3 
17 *140:103 *320:CLK 27.1405 
*END

*D_NET *141 0.00950575
*CONN
*I *308:CLK I *D sky130_fd_sc_hd__dfxtp_1
*I *307:CLK I *D sky130_fd_sc_hd__dfxtp_1
*I *305:CLK I *D sky130_fd_sc_hd__dfxtp_1
*I *306:CLK I *D sky130_fd_sc_hd__dfxtp_1
*I *331:A I *D sky130_fd_sc_hd__clkbuf_8
*I *316:CLK I *D sky130_fd_sc_hd__dfxtp_1
*I *304:CLK I *D sky130_fd_sc_hd__dfxtp_1
*I *303:CLK I *D sky130_fd_sc_hd__dfxtp_1
*I *328:X O *D sky130_fd_sc_hd__clkbuf_4
*CAP
1 *308:CLK 0.000291591
2 *307:CLK 0
3 *305:CLK 0.000472538
4 *306:CLK 0.000228387
5 *331:A 0.000185249
6 *316:CLK 0.000628068
7 *304:CLK 0
8 *303:CLK 0.000327509
9 *328:X 0
10 *141:78 0.00078078
11 *141:74 0.000312362
12 *141:72 0.000659178
13 *141:37 0.000890442
14 *141:16 0.000827601
15 *141:8 0.000613619
16 *141:6 0.000325731
17 *303:CLK *143:6 5.04829e-06
18 *308:CLK *223:A1 3.82228e-05
19 *308:CLK *150:21 0.000243918
20 *316:CLK *147:10 0.000128091
21 *331:A *218:D 0.000101133
22 *331:A *147:40 0
23 *331:A *147:88 0
24 *141:8 *221:A2 1.0271e-05
25 *141:16 *218:D 6.94726e-05
26 *141:16 *143:6 8.14875e-05
27 *141:16 *143:45 5.04829e-06
28 *141:37 *207:A 1.55462e-05
29 *141:72 *223:A1 0
30 *207:B *141:16 2.95757e-05
31 *207:B *141:37 0.000192278
32 *213:A1 *141:16 7.14746e-05
33 *213:A2 *141:16 8.62625e-06
34 *213:B1 *303:CLK 0.00027329
35 *213:B1 *141:16 0.00011818
36 *219:B *141:8 3.88358e-05
37 *222:C *305:CLK 0
38 *222:C *306:CLK 0
39 *223:B1 *141:8 9.61651e-05
40 *223:B1 *141:72 7.15593e-05
41 *226:A *141:8 2.02035e-05
42 *226:B *141:8 0
43 *226:C *141:8 0.000188828
44 *226:C *141:72 0.000309548
45 *303:D *303:CLK 0.000176469
46 *304:D *316:CLK 1.87611e-05
47 *304:D *141:37 2.94426e-05
48 *305:D *305:CLK 3.18826e-06
49 *305:D *306:CLK 0
50 *306:D *306:CLK 7.44658e-05
51 *307:D *306:CLK 2.692e-05
52 *307:D *141:74 0.000132947
53 *307:D *141:78 1.61631e-05
54 *316:D *316:CLK 1.61631e-05
55 *12:101 *141:37 0
56 *12:112 *141:37 0
57 *53:18 *141:16 6.08467e-05
58 *53:35 *141:16 0.000148144
59 *53:48 *141:8 9.82202e-06
60 *53:48 *141:16 0.000132557
61 *62:48 *141:72 0
*RES
1 *328:X *141:6 13.8 
2 *141:6 *141:8 5.77689 
3 *141:8 *141:16 12.9816 
4 *141:16 *303:CLK 19.2829 
5 *141:16 *141:37 15.815 
6 *141:37 *304:CLK 9.3 
7 *141:37 *316:CLK 25.2388 
8 *141:8 *331:A 17.9647 
9 *141:6 *141:72 10.0693 
10 *141:72 *141:74 5.16022 
11 *141:74 *141:78 6.3326 
12 *141:78 *306:CLK 19.4284 
13 *141:78 *305:CLK 22.0568 
14 *141:74 *307:CLK 9.3 
15 *141:72 *308:CLK 18.3424 
*END

*D_NET *142 0.0084181
*CONN
*I *311:CLK I *D sky130_fd_sc_hd__dfxtp_1
*I *312:CLK I *D sky130_fd_sc_hd__dfxtp_1
*I *310:CLK I *D sky130_fd_sc_hd__dfxtp_1
*I *332:A I *D sky130_fd_sc_hd__clkbuf_8
*I *309:CLK I *D sky130_fd_sc_hd__dfxtp_1
*I *315:CLK I *D sky130_fd_sc_hd__dfxtp_1
*I *313:CLK I *D sky130_fd_sc_hd__dfxtp_1
*I *314:CLK I *D sky130_fd_sc_hd__dfxtp_1
*I *329:X O *D sky130_fd_sc_hd__clkbuf_4
*CAP
1 *311:CLK 0
2 *312:CLK 0.000109926
3 *310:CLK 0.000281669
4 *332:A 0
5 *309:CLK 0.000506739
6 *315:CLK 0
7 *313:CLK 0.000331547
8 *314:CLK 0.000313596
9 *329:X 0
10 *142:76 0.000233521
11 *142:67 0.000537527
12 *142:45 0.00068925
13 *142:21 0.000449604
14 *142:12 0.000557974
15 *142:8 0.000420974
16 *142:6 0.000244405
17 *309:CLK *152:6 5.74903e-05
18 *309:CLK *152:10 5.64445e-05
19 *310:CLK *154:16 0.000497259
20 *314:CLK *267:B 7.41137e-05
21 *314:CLK *145:6 2.16355e-05
22 *314:CLK *145:10 0.000242823
23 *142:12 *155:39 3.54138e-05
24 *142:67 *176:A 0
25 *142:67 *153:10 0
26 *142:76 *154:16 7.64392e-05
27 *238:C1 *142:45 0.000172954
28 *239:B *309:CLK 2.83665e-05
29 *239:C *309:CLK 0.000217812
30 *242:B *142:8 0
31 *243:B *312:CLK 0
32 *243:B *142:8 2.15266e-05
33 *243:B *142:67 3.98412e-05
34 *251:A *313:CLK 0
35 *251:B *313:CLK 6.66393e-05
36 *251:C *313:CLK 0.000153225
37 *259:A1 *142:12 0.000247261
38 *267:C *309:CLK 1.41976e-05
39 *309:D *309:CLK 0.000110833
40 *310:D *310:CLK 0.000158709
41 *311:D *142:76 0.00016553
42 *312:D *312:CLK 0.000185193
43 *314:D *314:CLK 1.87611e-05
44 *315:D *313:CLK 0.000100156
45 *12:325 *142:8 0
46 *12:325 *142:12 0
47 *51:106 *142:8 0.000182915
48 *51:106 *142:12 0.000389761
49 *51:207 *142:8 3.31882e-05
50 *51:207 *142:67 2.24484e-05
51 *53:134 *313:CLK 0.000311593
52 *78:22 *309:CLK 2.85139e-05
53 *78:22 *142:45 1.00981e-05
54 *138:99 *142:67 2.23735e-07
*RES
1 *329:X *142:6 13.8 
2 *142:6 *142:8 3.90826 
3 *142:8 *142:12 11.315 
4 *142:12 *314:CLK 18.3424 
5 *142:12 *142:21 2.38721 
6 *142:21 *313:CLK 28.3596 
7 *142:21 *315:CLK 9.3 
8 *142:8 *142:45 9.66022 
9 *142:45 *309:CLK 22.9963 
10 *142:45 *332:A 9.3 
11 *142:6 *142:67 7.57775 
12 *142:67 *310:CLK 18.3424 
13 *142:67 *142:76 4.05102 
14 *142:76 *312:CLK 21.793 
15 *142:76 *311:CLK 9.3 
*END

*D_NET *143 0.0086175
*CONN
*I *221:A3 I *D sky130_fd_sc_hd__a31oi_1
*I *214:A3 I *D sky130_fd_sc_hd__a31oi_1
*I *216:A2 I *D sky130_fd_sc_hd__a21oi_1
*I *260:C I *D sky130_fd_sc_hd__nor4b_1
*I *263:B I *D sky130_fd_sc_hd__nor3b_1
*I *211:A2 I *D sky130_fd_sc_hd__a21oi_1
*I *218:D I *D sky130_fd_sc_hd__and4_1
*I *212:A2 I *D sky130_fd_sc_hd__o21ai_0
*I *207:A I *D sky130_fd_sc_hd__nor2_1
*I *208:A1 I *D sky130_fd_sc_hd__a21oi_1
*I *303:Q O *D sky130_fd_sc_hd__dfxtp_1
*CAP
1 *221:A3 0.000420351
2 *214:A3 0
3 *216:A2 1.23188e-05
4 *260:C 7.89895e-05
5 *263:B 0
6 *211:A2 0
7 *218:D 0.000658079
8 *212:A2 0
9 *207:A 2.80675e-05
10 *208:A1 0.000139399
11 *303:Q 0.000215277
12 *143:108 1.23188e-05
13 *143:106 0.000551044
14 *143:77 0.000538109
15 *143:70 0.00051887
16 *143:45 0.000823995
17 *143:16 0.000265398
18 *143:10 0.000160285
19 *143:6 0.000253103
20 *216:A2 *214:A1 1.92172e-05
21 *216:A2 *216:A1 6.50586e-05
22 *216:A2 *216:B1 1.61631e-05
23 *218:D *147:40 0
24 *218:D *147:44 5.74364e-05
25 *218:D *147:53 5.04829e-06
26 *218:D *147:88 0
27 *218:D *149:31 1.10517e-05
28 *221:A3 *221:A1 6.92705e-05
29 *221:A3 *221:A2 1.53819e-05
30 *221:A3 *148:8 0.000651164
31 *221:A3 *148:14 1.9101e-05
32 *221:A3 *148:22 0.000217572
33 *260:C *263:A 0.00017419
34 *260:C *263:C_N 0.000239262
35 *260:C *264:C 2.34061e-05
36 *260:C *264:D 0.000161234
37 *143:77 *264:C 3.61874e-05
38 *143:77 *264:D 0.000212864
39 *207:B *207:A 8.62625e-06
40 *207:B *143:10 5.66868e-06
41 *208:A2 *208:A1 0.000164829
42 *208:A2 *143:16 0.000107496
43 *208:B1 *208:A1 1.00937e-05
44 *210:B *221:A3 0.00017702
45 *210:B *143:106 5.41227e-05
46 *212:B1 *143:10 2.04806e-05
47 *213:A1 *218:D 7.50872e-05
48 *213:A2 *218:D 3.67708e-05
49 *213:A2 *143:10 0.000101133
50 *213:B1 *143:106 6.92705e-05
51 *215:A2 *221:A3 3.9069e-05
52 *222:C *221:A3 0.000173161
53 *226:A *221:A3 1.75925e-05
54 *303:CLK *143:6 5.04829e-06
55 *304:D *207:A 5.41377e-05
56 *304:D *143:6 6.50586e-05
57 *304:D *143:10 0.000137404
58 *304:D *143:16 5.41377e-05
59 *306:D *221:A3 0.000153225
60 *307:D *221:A3 2.7138e-05
61 *331:A *218:D 0.000101133
62 *12:123 *221:A3 0
63 *12:123 *143:106 0
64 *12:198 *218:D 0
65 *53:14 *218:D 7.22239e-05
66 *53:14 *143:10 8.92568e-06
67 *53:14 *143:16 1.36691e-05
68 *53:18 *218:D 5.04829e-06
69 *53:18 *143:45 1.5613e-05
70 *53:35 *143:106 0
71 *62:8 *218:D 3.5534e-06
72 *141:16 *218:D 6.94726e-05
73 *141:16 *143:6 8.14875e-05
74 *141:16 *143:45 5.04829e-06
75 *141:37 *207:A 1.55462e-05
*RES
1 *303:Q *143:6 11.6872 
2 *143:6 *143:10 7.57775 
3 *143:10 *143:16 6.77949 
4 *143:16 *208:A1 11.6872 
5 *143:16 *207:A 19.3015 
6 *143:10 *212:A2 13.8 
7 *143:6 *143:45 2.68862 
8 *143:45 *218:D 41.4168 
9 *143:45 *143:70 1.57941 
10 *143:70 *211:A2 9.3 
11 *143:70 *143:77 11.8155 
12 *143:77 *263:B 9.3 
13 *143:77 *260:C 23.2104 
14 *303:Q *143:106 16.7706 
15 *143:106 *143:108 4.5 
16 *143:108 *216:A2 10.0234 
17 *143:108 *214:A3 9.3 
18 *143:106 *221:A3 32.2743 
*END

*D_NET *144 0.00890982
*CONN
*I *248:A1 I *D sky130_fd_sc_hd__a31oi_1
*I *250:B1 I *D sky130_fd_sc_hd__a21oi_1
*I *254:A1 I *D sky130_fd_sc_hd__a41oi_1
*I *264:B I *D sky130_fd_sc_hd__nor4_1
*I *260:D_N I *D sky130_fd_sc_hd__nor4b_1
*I *252:B I *D sky130_fd_sc_hd__nand4_1
*I *253:A2 I *D sky130_fd_sc_hd__a41oi_1
*I *249:A1 I *D sky130_fd_sc_hd__a21oi_1
*I *313:Q O *D sky130_fd_sc_hd__dfxtp_1
*CAP
1 *248:A1 0
2 *250:B1 0.000206284
3 *254:A1 2.06324e-05
4 *264:B 0.000105782
5 *260:D_N 2.90725e-05
6 *252:B 0
7 *253:A2 0.00036801
8 *249:A1 9.23652e-05
9 *313:Q 0.000466237
10 *144:73 0.00068552
11 *144:61 0.00081352
12 *144:59 0.000565501
13 *144:35 0.000472997
14 *144:33 0.000529159
15 *144:23 0.000453581
16 *144:6 0.000705007
17 *250:B1 *254:A2 6.92705e-05
18 *253:A2 *175:A 1.77537e-06
19 *253:A2 *253:A1 4.86805e-05
20 *253:A2 *253:A3 9.12416e-06
21 *253:A2 *267:A 0.000213725
22 *253:A2 *155:84 6.08467e-05
23 *260:D_N *260:A 2.16355e-05
24 *264:B *260:A 9.12353e-05
25 *264:B *264:A 3.75603e-05
26 *264:B *264:C 2.96784e-06
27 *144:33 *248:A2 3.80087e-06
28 *144:33 *146:16 1.58551e-05
29 *144:33 *155:54 1.7286e-05
30 *144:33 *155:84 0.000102003
31 *144:35 *155:84 0.000150646
32 *144:59 *155:52 0.000126041
33 *144:61 *254:A2 0.000227859
34 *144:73 *254:A2 4.31539e-05
35 *144:73 *254:B1 5.66868e-06
36 *144:73 *260:A 1.27339e-05
37 *144:73 *267:A 2.65667e-05
38 *144:73 *267:B 0.000238987
39 *239:A *253:A2 0
40 *247:B1 *250:B1 0.000186471
41 *248:B1 *144:23 1.59756e-05
42 *249:B1 *249:A1 2.04806e-05
43 *249:B1 *144:23 0.000171273
44 *250:A2 *250:B1 6.34612e-05
45 *251:A *144:6 2.86013e-06
46 *251:A *144:23 3.02258e-05
47 *251:B *249:A1 7.50872e-05
48 *251:C *250:B1 2.65831e-05
49 *253:A4 *253:A2 7.86825e-06
50 *253:B1 *253:A2 6.98648e-06
51 *255:B *253:A2 1.55462e-05
52 *256:A *253:A2 9.75356e-05
53 *256:B *144:73 5.04879e-05
54 *257:A2 *144:23 0
55 *259:A1 *250:B1 3.29703e-05
56 *259:A1 *144:59 0.000290644
57 *259:A2 *144:33 7.09666e-06
58 *259:B1 *250:B1 6.3657e-05
59 *262:A2 *264:B 0.000148129
60 *266:A *144:73 3.77925e-05
61 *267:C *144:73 7.14678e-05
62 *267:D *264:B 8.62625e-06
63 *268:A2 *264:B 9.2346e-06
64 *313:D *144:23 2.13584e-05
65 *315:D *250:B1 2.16355e-05
66 *12:287 *144:33 0.000180404
67 *53:123 *144:23 2.81165e-05
68 *53:123 *144:33 6.3657e-05
69 *53:134 *144:33 4.8584e-05
70 *78:26 *253:A2 9.98029e-06
71 *78:30 *253:A2 2.47853e-05
72 *123:6 *144:73 2.97556e-05
73 *138:67 *264:B 0
74 *138:67 *144:73 0
*RES
1 *313:Q *144:6 16.124 
2 *144:6 *249:A1 20.5472 
3 *144:6 *144:23 5.06377 
4 *144:23 *144:33 16.4341 
5 *144:33 *144:35 1.8326 
6 *144:35 *253:A2 26.3958 
7 *144:35 *252:B 9.3 
8 *144:33 *144:59 14.154 
9 *144:59 *144:61 6.26943 
10 *144:61 *144:73 24.7801 
11 *144:73 *260:D_N 10.0234 
12 *144:73 *264:B 22.2646 
13 *144:61 *254:A1 9.87872 
14 *144:59 *250:B1 16.1723 
15 *144:23 *248:A1 9.3 
*END

*D_NET *145 0.00582797
*CONN
*I *252:A I *D sky130_fd_sc_hd__nand4_1
*I *253:A1 I *D sky130_fd_sc_hd__a41oi_1
*I *254:B1 I *D sky130_fd_sc_hd__a41oi_1
*I *264:A I *D sky130_fd_sc_hd__nor4_1
*I *260:A I *D sky130_fd_sc_hd__nor4b_1
*I *314:Q O *D sky130_fd_sc_hd__dfxtp_1
*CAP
1 *252:A 0.000143501
2 *253:A1 0.00018161
3 *254:B1 0.000114594
4 *264:A 2.68789e-05
5 *260:A 0.000255543
6 *314:Q 4.14972e-05
7 *145:55 0.000400509
8 *145:16 0.000822731
9 *145:10 0.00108073
10 *145:6 0.000542718
11 *252:A *155:84 4.91225e-06
12 *145:16 *267:A 0.000587537
13 *253:A2 *253:A1 4.86805e-05
14 *255:A *252:A 2.16355e-05
15 *255:A *253:A1 3.82228e-05
16 *256:B *254:B1 0.000165835
17 *256:B *145:16 6.96979e-05
18 *258:C *252:A 5.19451e-05
19 *260:D_N *260:A 2.16355e-05
20 *264:B *260:A 9.12353e-05
21 *264:B *264:A 3.75603e-05
22 *268:A2 *260:A 7.14746e-05
23 *314:CLK *145:6 2.16355e-05
24 *314:CLK *145:10 0.000242823
25 *314:D *254:B1 3.31882e-05
26 *314:D *145:10 1.87611e-05
27 *314:D *145:16 7.14746e-05
28 *51:93 *145:55 5.56367e-05
29 *51:106 *145:55 0.000130808
30 *52:10 *254:B1 8.96809e-05
31 *78:26 *145:55 0.000116971
32 *78:30 *253:A1 0.000127708
33 *78:30 *145:55 8.01987e-05
34 *144:73 *254:B1 5.66868e-06
35 *144:73 *260:A 1.27339e-05
*RES
1 *314:Q *145:6 10.0234 
2 *145:6 *145:10 11.324 
3 *145:10 *145:16 14.4046 
4 *145:16 *260:A 23.2614 
5 *145:16 *264:A 10.2886 
6 *145:10 *254:B1 18.1235 
7 *145:6 *145:55 12.493 
8 *145:55 *253:A1 22.2405 
9 *145:55 *252:A 12.1212 
*END

*D_NET *146 0.00724175
*CONN
*I *258:A I *D sky130_fd_sc_hd__or3_1
*I *265:B1 I *D sky130_fd_sc_hd__a31oi_1
*I *262:B1 I *D sky130_fd_sc_hd__o21ai_0
*I *257:B1 I *D sky130_fd_sc_hd__o21ai_0
*I *315:Q O *D sky130_fd_sc_hd__dfxtp_1
*CAP
1 *258:A 0
2 *265:B1 0.000872391
3 *262:B1 0.000399677
4 *257:B1 1.4605e-05
5 *315:Q 0.00051255
6 *146:37 0.00235496
7 *146:22 0.00121466
8 *146:16 0.00062972
9 *257:B1 *155:54 7.12632e-06
10 *146:16 *155:84 5.04829e-06
11 *146:22 *155:54 2.5179e-05
12 *146:22 *155:84 1.92172e-05
13 *248:A3 *146:37 0.000323107
14 *251:C *146:16 0
15 *253:A4 *146:37 0.000329655
16 *258:B *146:22 9.34404e-05
17 *258:C *146:22 6.50727e-05
18 *259:A1 *257:B1 1.5714e-05
19 *259:A1 *146:22 0.000141957
20 *262:A2 *262:B1 0.000113188
21 *265:A3 *265:B1 1.66626e-05
22 *268:A1 *262:B1 6.56617e-05
23 *309:D *265:B1 3.5534e-06
24 *12:179 *262:B1 0
25 *138:81 *265:B1 2.75197e-06
26 *144:33 *146:16 1.58551e-05
*RES
1 *315:Q *146:16 29.7826 
2 *146:16 *146:22 8.64812 
3 *146:22 *257:B1 14.1786 
4 *146:22 *146:37 9.43231 
5 *146:37 *262:B1 23.5605 
6 *146:37 *265:B1 22.8517 
7 *146:16 *258:A 9.3 
*END

*D_NET *147 0.00937657
*CONN
*I *260:B I *D sky130_fd_sc_hd__nor4b_1
*I *263:C_N I *D sky130_fd_sc_hd__nor3b_1
*I *218:C I *D sky130_fd_sc_hd__and4_1
*I *221:A2 I *D sky130_fd_sc_hd__a31oi_1
*I *214:A2 I *D sky130_fd_sc_hd__a31oi_1
*I *216:A1 I *D sky130_fd_sc_hd__a21oi_1
*I *210:A I *D sky130_fd_sc_hd__nand2_1
*I *211:A1 I *D sky130_fd_sc_hd__a21oi_1
*I *212:A1 I *D sky130_fd_sc_hd__o21ai_0
*I *304:Q O *D sky130_fd_sc_hd__dfxtp_1
*CAP
1 *260:B 0
2 *263:C_N 7.87333e-05
3 *218:C 0
4 *221:A2 0.000545552
5 *214:A2 0
6 *216:A1 8.75675e-05
7 *210:A 0
8 *211:A1 1.10043e-06
9 *212:A1 0.000194967
10 *304:Q 0.00031062
11 *147:99 0.000836974
12 *147:88 0.0010933
13 *147:57 0.000126342
14 *147:53 0.000700262
15 *147:44 0.000227311
16 *147:40 0.000612581
17 *147:27 0.000346488
18 *147:10 0.000684826
19 *216:A1 *214:A1 5.51483e-06
20 *216:A1 *216:B1 2.41483e-05
21 *221:A2 *221:B1 0
22 *221:A2 *148:8 0.000258993
23 *263:C_N *263:A 7.77309e-06
24 *263:C_N *264:C 5.56461e-05
25 *263:C_N *264:D 1.92172e-05
26 *147:10 *171:74 3.37843e-05
27 *147:57 *214:A1 3.75382e-05
28 *147:57 *216:B1 0
29 *147:88 *177:A 6.50727e-05
30 *147:88 *266:B 1.5613e-05
31 *147:88 *149:31 4.31485e-06
32 *147:99 *177:A 0.000205985
33 *147:99 *261:A_N 2.77625e-06
34 *147:99 *263:A 3.14055e-05
35 *147:99 *266:B 3.98132e-05
36 *147:99 *150:45 1.69932e-05
37 *208:A2 *212:A1 0.000106624
38 *208:B1 *212:A1 0
39 *210:B *216:A1 0
40 *210:B *221:A2 5.82461e-05
41 *210:B *147:53 2.1102e-05
42 *210:B *147:57 3.45876e-05
43 *215:A2 *221:A2 1.93781e-05
44 *215:B1 *147:53 2.16355e-05
45 *215:B1 *147:57 9.82896e-06
46 *216:A2 *216:A1 6.50586e-05
47 *218:D *147:40 0
48 *218:D *147:44 5.74364e-05
49 *218:D *147:53 5.04829e-06
50 *218:D *147:88 0
51 *220:A2 *147:88 2.16355e-05
52 *221:A3 *221:A2 1.53819e-05
53 *226:A *221:A2 0.00012658
54 *226:B *147:88 0.000114039
55 *226:C *221:A2 0.000293752
56 *260:C *263:C_N 0.000239262
57 *261:C *147:99 0.000143032
58 *265:A3 *263:C_N 0.000200251
59 *265:A3 *147:99 0.000268165
60 *266:A *147:99 0.000262509
61 *266:C *147:99 0.000115599
62 *316:CLK *147:10 0.000128091
63 *331:A *147:40 0
64 *331:A *147:88 0
65 *51:30 *212:A1 1.41976e-05
66 *51:132 *147:88 3.92776e-05
67 *51:140 *147:88 3.38973e-05
68 *53:14 *211:A1 6.16161e-07
69 *53:14 *147:10 1.75625e-05
70 *53:14 *147:27 0.000121986
71 *53:48 *221:A2 0.000140303
72 *62:48 *221:A2 0
73 *141:8 *221:A2 1.0271e-05
*RES
1 *304:Q *147:10 19.8196 
2 *147:10 *212:A1 18.4297 
3 *147:10 *147:27 4.94639 
4 *147:27 *211:A1 13.9832 
5 *147:27 *147:40 4.53113 
6 *147:40 *147:44 7.44181 
7 *147:44 *210:A 9.3 
8 *147:44 *147:53 2.96592 
9 *147:53 *147:57 1.85672 
10 *147:57 *216:A1 11.7113 
11 *147:57 *214:A2 9.3 
12 *147:53 *221:A2 35.0811 
13 *147:40 *147:88 11.626 
14 *147:88 *218:C 9.3 
15 *147:88 *147:99 19.945 
16 *147:99 *263:C_N 18.571 
17 *147:99 *260:B 13.8 
*END

*D_NET *148 0.00511989
*CONN
*I *221:A1 I *D sky130_fd_sc_hd__a31oi_1
*I *177:A I *D sky130_fd_sc_hd__clkinv_1
*I *218:B I *D sky130_fd_sc_hd__and4_1
*I *215:A1 I *D sky130_fd_sc_hd__a21oi_1
*I *214:A1 I *D sky130_fd_sc_hd__a31oi_1
*I *216:B1 I *D sky130_fd_sc_hd__a21oi_1
*I *305:Q O *D sky130_fd_sc_hd__dfxtp_1
*CAP
1 *221:A1 6.93035e-05
2 *177:A 3.57891e-05
3 *218:B 0
4 *215:A1 0
5 *214:A1 4.75659e-05
6 *216:B1 8.86498e-05
7 *305:Q 0
8 *148:57 0.000421012
9 *148:22 0.000272453
10 *148:14 0.000201347
11 *148:8 0.000680559
12 *148:4 0.000299529
13 *177:A *266:B 0.000120546
14 *148:57 *149:31 3.63593e-05
15 *215:B1 *214:A1 0.000158371
16 *215:B1 *216:B1 2.41483e-05
17 *215:B1 *148:22 0.000143032
18 *216:A1 *214:A1 5.51483e-06
19 *216:A1 *216:B1 2.41483e-05
20 *216:A2 *214:A1 1.92172e-05
21 *216:A2 *216:B1 1.61631e-05
22 *217:C *216:B1 5.04829e-06
23 *219:B *148:57 0.000473094
24 *221:A2 *148:8 0.000258993
25 *221:A3 *221:A1 6.92705e-05
26 *221:A3 *148:8 0.000651164
27 *221:A3 *148:14 1.9101e-05
28 *221:A3 *148:22 0.000217572
29 *222:C *221:A1 6.73351e-05
30 *225:B *221:A1 0
31 *226:A *148:8 8.26073e-05
32 *226:A *148:14 1.5714e-05
33 *226:A *148:57 0.000204088
34 *307:D *148:14 1.4091e-06
35 *307:D *148:22 2.7224e-05
36 *12:123 *148:22 7.56859e-06
37 *51:140 *148:57 4.73911e-05
38 *147:57 *214:A1 3.75382e-05
39 *147:57 *216:B1 0
40 *147:88 *177:A 6.50727e-05
41 *147:99 *177:A 0.000205985
*RES
1 *305:Q *148:4 9.3 
2 *148:4 *148:8 16.0904 
3 *148:8 *148:14 5.60201 
4 *148:14 *148:22 13.6317 
5 *148:22 *216:B1 12.29 
6 *148:22 *214:A1 11.7113 
7 *148:14 *215:A1 9.3 
8 *148:8 *148:57 13.2346 
9 *148:57 *218:B 9.3 
10 *148:57 *177:A 12.2418 
11 *148:4 *221:A1 11.7113 
*END

*D_NET *149 0.00459052
*CONN
*I *266:B I *D sky130_fd_sc_hd__nand3_1
*I *220:A1 I *D sky130_fd_sc_hd__a21oi_1
*I *218:A I *D sky130_fd_sc_hd__and4_1
*I *221:B1 I *D sky130_fd_sc_hd__a31oi_1
*I *306:Q O *D sky130_fd_sc_hd__dfxtp_1
*CAP
1 *266:B 0.000285303
2 *220:A1 6.76156e-05
3 *218:A 0
4 *221:B1 0.000340975
5 *306:Q 0.000292408
6 *149:38 0.00037354
7 *149:31 0.000403819
8 *149:6 0.00101658
9 *221:B1 *225:A 0.000171273
10 *266:B *261:A_N 0.000107496
11 *266:B *261:D 0
12 *177:A *266:B 0.000120546
13 *218:D *149:31 1.10517e-05
14 *219:A *220:A1 8.67924e-06
15 *220:A2 *220:A1 6.08467e-05
16 *220:A2 *266:B 1.41976e-05
17 *221:A2 *221:B1 0
18 *224:B1 *149:6 7.34569e-06
19 *225:B *221:B1 5.92517e-05
20 *226:B *220:A1 5.04829e-06
21 *226:C *221:B1 1.41291e-05
22 *266:A *266:B 1.09551e-05
23 *266:C *266:B 0.00027103
24 *51:130 *149:31 0.000308078
25 *51:132 *149:31 0.000155064
26 *51:140 *149:31 3.29488e-05
27 *62:8 *149:31 0
28 *62:42 *149:6 2.65831e-05
29 *62:42 *149:31 1.41689e-05
30 *62:48 *221:B1 0.000311593
31 *62:48 *149:31 3.89332e-06
32 *147:88 *266:B 1.5613e-05
33 *147:88 *149:31 4.31485e-06
34 *147:99 *266:B 3.98132e-05
35 *148:57 *149:31 3.63593e-05
*RES
1 *306:Q *149:6 13.351 
2 *149:6 *221:B1 28.7749 
3 *149:6 *149:31 19.4774 
4 *149:31 *218:A 9.3 
5 *149:31 *149:38 0.578717 
6 *149:38 *220:A1 11.1567 
7 *149:38 *266:B 18.9212 
*END

*D_NET *150 0.00903823
*CONN
*I *231:C I *D sky130_fd_sc_hd__nand4_1
*I *229:A1 I *D sky130_fd_sc_hd__a21oi_1
*I *225:A I *D sky130_fd_sc_hd__nor2_1
*I *233:A2 I *D sky130_fd_sc_hd__a31oi_1
*I *261:B I *D sky130_fd_sc_hd__nand4b_1
*I *263:A I *D sky130_fd_sc_hd__nor3b_1
*I *227:A2 I *D sky130_fd_sc_hd__a31oi_1
*I *224:A1 I *D sky130_fd_sc_hd__a21oi_1
*I *223:A1 I *D sky130_fd_sc_hd__a21oi_1
*I *307:Q O *D sky130_fd_sc_hd__dfxtp_1
*CAP
1 *231:C 2.22872e-05
2 *229:A1 0
3 *225:A 0.000317388
4 *233:A2 4.18856e-05
5 *261:B 6.926e-05
6 *263:A 0.000215138
7 *227:A2 0
8 *224:A1 0.000293873
9 *223:A1 0.000156626
10 *307:Q 0
11 *150:82 0.000340979
12 *150:80 0.00025806
13 *150:45 0.000415733
14 *150:31 0.000439107
15 *150:25 0.000483642
16 *150:23 0.000307821
17 *150:21 0.00102696
18 *150:4 0.000912541
19 *225:A *231:B 0.00011818
20 *231:C *231:B 0.000171288
21 *261:B *261:D 3.06765e-05
22 *263:A *261:A_N 8.03393e-06
23 *263:A *261:D 2.7363e-05
24 *150:23 *151:12 2.652e-05
25 *150:25 *151:12 2.46901e-05
26 *150:25 *151:37 0
27 *150:25 *152:16 0
28 *150:25 *152:50 0
29 *150:45 *261:A_N 4.2153e-05
30 *150:80 *231:A 0
31 *150:80 *231:B 0
32 *150:80 *151:12 3.20069e-06
33 *150:80 *151:74 0
34 *150:82 *231:B 0.000220044
35 *221:B1 *225:A 0.000171273
36 *225:B *225:A 0.000118166
37 *227:B1 *263:A 0
38 *227:B1 *150:45 0
39 *231:D *231:C 0.000103983
40 *231:D *150:82 0.000166937
41 *233:A3 *224:A1 4.88955e-05
42 *233:A3 *150:25 0.00016845
43 *233:A3 *150:31 0.000191927
44 *260:C *263:A 0.00017419
45 *261:C *263:A 9.24241e-05
46 *261:C *150:45 5.41377e-05
47 *263:C_N *263:A 7.77309e-06
48 *265:A1 *150:25 1.58826e-05
49 *265:A2 *263:A 5.75768e-05
50 *265:A2 *150:31 0.0001126
51 *265:A2 *150:45 2.29151e-05
52 *265:A3 *150:25 2.60879e-06
53 *265:A3 *150:45 1.78995e-05
54 *266:A *261:B 1.58551e-05
55 *267:D *261:B 0.000107496
56 *308:CLK *223:A1 3.82228e-05
57 *308:CLK *150:21 0.000243918
58 *308:D *150:21 6.67095e-06
59 *309:D *150:25 0
60 *51:124 *233:A2 6.50727e-05
61 *62:12 *224:A1 0.00033061
62 *62:48 *223:A1 8.91956e-05
63 *62:61 *225:A 0.00049055
64 *62:61 *150:82 1.67988e-05
65 *138:81 *224:A1 8.43572e-05
66 *141:72 *223:A1 0
67 *147:99 *263:A 3.14055e-05
68 *147:99 *150:45 1.69932e-05
*RES
1 *307:Q *150:4 9.3 
2 *150:4 *223:A1 21.41 
3 *150:4 *150:21 16.3155 
4 *150:21 *150:23 1.41674 
5 *150:23 *150:25 5.15401 
6 *150:25 *150:31 8.72921 
7 *150:31 *224:A1 17.2332 
8 *150:31 *227:A2 9.3 
9 *150:25 *150:45 3.493 
10 *150:45 *263:A 20.9326 
11 *150:45 *261:B 16.0666 
12 *150:23 *233:A2 14.5234 
13 *150:21 *150:80 9.65401 
14 *150:80 *150:82 2.38721 
15 *150:82 *225:A 21.3084 
16 *150:82 *229:A1 9.3 
17 *150:80 *231:C 11.1326 
*END

*D_NET *151 0.00668296
*CONN
*I *231:B I *D sky130_fd_sc_hd__nand4_1
*I *229:B1 I *D sky130_fd_sc_hd__a21oi_1
*I *227:A1 I *D sky130_fd_sc_hd__a31oi_1
*I *261:A_N I *D sky130_fd_sc_hd__nand4b_1
*I *264:D I *D sky130_fd_sc_hd__nor4_1
*I *233:A1 I *D sky130_fd_sc_hd__a31oi_1
*I *228:A1 I *D sky130_fd_sc_hd__a21oi_1
*I *308:Q O *D sky130_fd_sc_hd__dfxtp_1
*CAP
1 *231:B 0.000373221
2 *229:B1 0
3 *227:A1 0
4 *261:A_N 0.000131665
5 *264:D 0.000262053
6 *233:A1 0
7 *228:A1 0.000165059
8 *308:Q 0.000210614
9 *151:74 0.000601174
10 *151:39 0.00048709
11 *151:37 0.000237136
12 *151:35 0.000472854
13 *151:12 0.000274538
14 *261:A_N *261:D 8.83916e-05
15 *264:D *264:C 0.000241472
16 *264:D *152:16 9.04083e-05
17 *151:12 *231:A 0
18 *151:12 *152:50 1.26168e-05
19 *151:37 *152:16 3.67708e-05
20 *151:39 *152:16 0.000224538
21 *225:A *231:B 0.00011818
22 *228:A2 *228:A1 1.09551e-05
23 *228:B1 *151:37 5.15741e-05
24 *230:C *151:37 1.18802e-05
25 *230:C *151:74 4.10689e-05
26 *231:C *231:B 0.000171288
27 *233:A3 *228:A1 6.08467e-05
28 *233:A3 *151:37 0
29 *234:A *228:A1 0.000269163
30 *260:C *264:D 0.000161234
31 *263:A *261:A_N 8.03393e-06
32 *263:C_N *264:D 1.92172e-05
33 *265:A2 *261:A_N 1.2693e-05
34 *265:A2 *264:D 6.50727e-05
35 *266:A *261:A_N 7.92757e-06
36 *266:B *261:A_N 0.000107496
37 *267:D *261:A_N 0.000110306
38 *308:D *151:37 3.20069e-06
39 *308:D *151:74 4.37999e-05
40 *12:198 *264:D 0.000328966
41 *12:198 *151:37 0.000156875
42 *12:198 *151:39 0.000224829
43 *51:124 *228:A1 5.45051e-05
44 *51:130 *228:A1 3.07133e-05
45 *51:130 *151:35 0.000171288
46 *62:42 *151:37 0
47 *143:77 *264:D 0.000212864
48 *147:99 *261:A_N 2.77625e-06
49 *150:23 *151:12 2.652e-05
50 *150:25 *151:12 2.46901e-05
51 *150:25 *151:37 0
52 *150:45 *261:A_N 4.2153e-05
53 *150:80 *231:B 0
54 *150:80 *151:12 3.20069e-06
55 *150:80 *151:74 0
56 *150:82 *231:B 0.000220044
*RES
1 *308:Q *151:12 22.2405 
2 *151:12 *228:A1 12.8205 
3 *151:12 *233:A1 9.3 
4 *228:A1 *151:35 15.6326 
5 *151:35 *151:37 4.32351 
6 *151:37 *151:39 4.32351 
7 *151:39 *264:D 24.5295 
8 *151:39 *261:A_N 26.7433 
9 *151:37 *227:A1 13.8 
10 *151:35 *151:74 5.98452 
11 *151:74 *229:B1 13.8 
12 *151:74 *231:B 20.5163 
*END

*D_NET *152 0.00696535
*CONN
*I *232:A1 I *D sky130_fd_sc_hd__a22oi_1
*I *231:A I *D sky130_fd_sc_hd__nand4_1
*I *233:B1 I *D sky130_fd_sc_hd__a31oi_1
*I *261:D I *D sky130_fd_sc_hd__nand4b_1
*I *264:C I *D sky130_fd_sc_hd__nor4_1
*I *309:Q O *D sky130_fd_sc_hd__dfxtp_1
*CAP
1 *232:A1 0.000191891
2 *231:A 0.000340377
3 *233:B1 0
4 *261:D 0.000264436
5 *264:C 0.000450265
6 *309:Q 0.000251348
7 *152:50 0.000508127
8 *152:16 0.00108148
9 *152:10 0.00088784
10 *152:6 0.000796551
11 *227:B1 *264:C 0.000321786
12 *227:B1 *152:16 0.000295063
13 *232:B2 *231:A 0
14 *232:B2 *232:A1 3.5534e-06
15 *233:A3 *152:16 0.000218017
16 *235:B *231:A 0
17 *239:C *232:A1 0
18 *239:C *152:6 1.41307e-05
19 *260:C *264:C 2.34061e-05
20 *261:A_N *261:D 8.83916e-05
21 *261:B *261:D 3.06765e-05
22 *263:A *261:D 2.7363e-05
23 *263:C_N *264:C 5.56461e-05
24 *264:B *264:C 2.96784e-06
25 *264:D *264:C 0.000241472
26 *264:D *152:16 9.04083e-05
27 *265:A2 *261:D 0.000116986
28 *265:A2 *152:16 4.34661e-06
29 *265:A3 *152:16 6.23875e-05
30 *266:A *261:D 4.12396e-05
31 *266:B *261:D 0
32 *267:C *152:10 1.68951e-06
33 *267:C *152:16 7.76105e-06
34 *267:D *261:D 1.37531e-05
35 *309:CLK *152:6 5.74903e-05
36 *309:CLK *152:10 5.64445e-05
37 *309:D *152:10 2.54559e-05
38 *309:D *152:50 3.42931e-05
39 *12:198 *264:C 4.58666e-05
40 *72:10 *231:A 0
41 *138:67 *231:A 2.33103e-06
42 *138:67 *232:A1 0
43 *138:67 *152:50 0
44 *143:77 *264:C 3.61874e-05
45 *150:25 *152:16 0
46 *150:25 *152:50 0
47 *150:80 *231:A 0
48 *151:12 *231:A 0
49 *151:12 *152:50 1.26168e-05
50 *151:37 *152:16 3.67708e-05
51 *151:39 *152:16 0.000224538
*RES
1 *309:Q *152:6 13.351 
2 *152:6 *152:10 5.73894 
3 *152:10 *152:16 16.06 
4 *152:16 *264:C 25.0841 
5 *152:16 *261:D 28.7366 
6 *152:10 *152:50 7.57775 
7 *152:50 *233:B1 13.8 
8 *152:50 *231:A 21.4944 
9 *152:6 *232:A1 21.6953 
*END

*D_NET *153 0.00166302
*CONN
*I *237:A1 I *D sky130_fd_sc_hd__a21oi_1
*I *176:A I *D sky130_fd_sc_hd__clkinv_1
*I *310:Q O *D sky130_fd_sc_hd__dfxtp_1
*CAP
1 *237:A1 0
2 *176:A 0.000290068
3 *310:Q 0.000246128
4 *153:10 0.000536196
5 *176:A *154:22 7.30003e-05
6 *153:10 *154:16 0.00033061
7 *237:B1 *176:A 1.50633e-05
8 *237:B1 *153:10 2.47663e-05
9 *238:C1 *176:A 0.000139435
10 *51:106 *176:A 0
11 *51:207 *176:A 0
12 *78:26 *176:A 0
13 *138:99 *176:A 7.75178e-06
14 *142:67 *176:A 0
15 *142:67 *153:10 0
*RES
1 *310:Q *153:10 18.7132 
2 *153:10 *176:A 21.3478 
3 *153:10 *237:A1 13.8 
*END

*D_NET *154 0.00862192
*CONN
*I *241:B1 I *D sky130_fd_sc_hd__a21oi_1
*I *267:B I *D sky130_fd_sc_hd__nor4_1
*I *175:A I *D sky130_fd_sc_hd__clkinv_1
*I *311:Q O *D sky130_fd_sc_hd__dfxtp_1
*CAP
1 *241:B1 0.000106243
2 *267:B 0.000634028
3 *175:A 0.000398053
4 *311:Q 0.00100262
5 *154:22 0.0014323
6 *154:16 0.00150908
7 *175:A *267:A 0.000111722
8 *176:A *154:22 7.30003e-05
9 *235:A *241:B1 0.000261068
10 *235:A *154:22 0.00012063
11 *237:B1 *241:B1 7.26733e-05
12 *238:C1 *154:22 3.0902e-05
13 *239:A *175:A 0.000562177
14 *239:A *154:22 0.000275437
15 *241:A1 *154:22 2.7482e-05
16 *253:A2 *175:A 1.77537e-06
17 *310:CLK *154:16 0.000497259
18 *310:D *241:B1 2.95757e-05
19 *310:D *154:16 6.08467e-05
20 *310:D *154:22 9.83856e-05
21 *311:D *154:16 0.000290956
22 *314:CLK *267:B 7.41137e-05
23 *52:10 *175:A 0.000190042
24 *52:23 *154:22 0.000115522
25 *78:26 *175:A 0
26 *78:26 *154:22 0
27 *142:76 *154:16 7.64392e-05
28 *144:73 *267:B 0.000238987
29 *153:10 *154:16 0.00033061
*RES
1 *311:Q *154:16 33.7657 
2 *154:16 *154:22 12.8484 
3 *154:22 *175:A 34.386 
4 *154:22 *267:B 23.9517 
5 *154:16 *241:B1 18.5388 
*END

*D_NET *155 0.0102427
*CONN
*I *244:B1 I *D sky130_fd_sc_hd__o21ai_0
*I *245:A I *D sky130_fd_sc_hd__nor2_1
*I *252:C I *D sky130_fd_sc_hd__nand4_1
*I *267:A I *D sky130_fd_sc_hd__nor4_1
*I *248:A2 I *D sky130_fd_sc_hd__a31oi_1
*I *253:A3 I *D sky130_fd_sc_hd__a41oi_1
*I *254:A2 I *D sky130_fd_sc_hd__a41oi_1
*I *250:A1 I *D sky130_fd_sc_hd__a21oi_1
*I *312:Q O *D sky130_fd_sc_hd__dfxtp_1
*CAP
1 *244:B1 0
2 *245:A 2.37015e-05
3 *252:C 0
4 *267:A 0.000435176
5 *248:A2 8.65603e-05
6 *253:A3 0.000529215
7 *254:A2 0.000214008
8 *250:A1 0.000163506
9 *312:Q 0.00063729
10 *155:84 0.000494031
11 *155:54 0.000774417
12 *155:52 0.000436435
13 *155:39 0.000652116
14 *155:33 0.000370949
15 *155:25 0.000128077
16 *155:10 0.000800796
17 *175:A *267:A 0.000111722
18 *236:A *155:10 0
19 *238:C1 *155:39 1.41307e-05
20 *239:A *253:A3 3.01634e-05
21 *240:A *155:39 6.08467e-05
22 *242:B *155:39 4.45999e-05
23 *243:A *155:39 7.5301e-06
24 *244:A1 *245:A 3.42714e-05
25 *244:A1 *155:33 1.95851e-05
26 *244:A2 *155:33 0.000148652
27 *244:A2 *155:39 0.000158371
28 *246:B *155:10 0
29 *246:B *155:39 4.91225e-06
30 *247:A1 *250:A1 0.000148144
31 *247:A1 *155:10 2.6046e-05
32 *247:A2 *250:A1 1.52522e-05
33 *247:A2 *155:10 2.64881e-05
34 *248:A3 *155:54 2.02035e-05
35 *249:A2 *253:A3 0.00032275
36 *250:B1 *254:A2 6.92705e-05
37 *251:B *155:54 0
38 *252:A *155:84 4.91225e-06
39 *253:A2 *253:A3 9.12416e-06
40 *253:A2 *267:A 0.000213725
41 *253:A2 *155:84 6.08467e-05
42 *255:A *267:A 0.000108054
43 *255:A *155:84 1.65872e-05
44 *255:B *267:A 6.50586e-05
45 *256:A *267:A 2.47484e-05
46 *256:B *267:A 4.33819e-05
47 *256:C *267:A 0.000117223
48 *257:B1 *155:54 7.12632e-06
49 *258:B *155:54 9.60366e-05
50 *258:C *155:84 0.000169041
51 *259:A1 *254:A2 0.000113968
52 *259:A1 *155:39 1.09738e-05
53 *259:A1 *155:52 1.40117e-05
54 *259:A1 *155:54 1.96175e-05
55 *315:D *155:52 0.000138523
56 *12:258 *155:54 0
57 *12:287 *155:52 0.000101555
58 *12:287 *155:54 0.000157906
59 *12:308 *155:52 2.28064e-05
60 *12:325 *155:39 5.65074e-05
61 *12:325 *155:52 8.03393e-06
62 *53:123 *248:A2 1.43404e-05
63 *123:6 *254:A2 0.00021569
64 *138:67 *267:A 5.39463e-05
65 *142:12 *155:39 3.54138e-05
66 *144:33 *248:A2 3.80087e-06
67 *144:33 *155:54 1.7286e-05
68 *144:33 *155:84 0.000102003
69 *144:35 *155:84 0.000150646
70 *144:59 *155:52 0.000126041
71 *144:61 *254:A2 0.000227859
72 *144:73 *254:A2 4.31539e-05
73 *144:73 *267:A 2.65667e-05
74 *145:16 *267:A 0.000587537
75 *146:16 *155:84 5.04829e-06
76 *146:22 *155:54 2.5179e-05
77 *146:22 *155:84 1.92172e-05
*RES
1 *312:Q *155:10 26.7423 
2 *155:10 *250:A1 18.1968 
3 *155:10 *155:25 4.5 
4 *155:25 *155:33 4.26804 
5 *155:33 *155:39 11.2135 
6 *155:39 *254:A2 21.7332 
7 *155:39 *155:52 7.13257 
8 *155:52 *155:54 5.15401 
9 *155:54 *253:A3 32.3182 
10 *155:54 *248:A2 15.078 
11 *155:52 *155:84 7.99641 
12 *155:84 *267:A 34.1953 
13 *155:84 *252:C 9.3 
14 *155:33 *245:A 10.7709 
15 *155:25 *244:B1 9.3 
*END

*D_NET *156 0.00809154
*CONN
*I *191:S0 I *D sky130_fd_sc_hd__mux4_2
*I *280:S I *D sky130_fd_sc_hd__mux2i_1
*I *282:B I *D sky130_fd_sc_hd__xor2_1
*I *290:C I *D sky130_fd_sc_hd__nand4_1
*I *285:C I *D sky130_fd_sc_hd__nand3_1
*I *190:S0 I *D sky130_fd_sc_hd__mux4_2
*I *287:A2 I *D sky130_fd_sc_hd__a21oi_1
*I *320:Q O *D sky130_fd_sc_hd__dfxtp_1
*CAP
1 *191:S0 0.000350303
2 *280:S 7.00009e-05
3 *282:B 0.000303117
4 *290:C 5.13394e-05
5 *285:C 0
6 *190:S0 0.000826453
7 *287:A2 0.000196156
8 *320:Q 0.000402157
9 *156:55 0.000724017
10 *156:35 0.000516292
11 *156:33 0.000975476
12 *156:23 0.000685104
13 *156:8 0.000647642
14 *190:S0 *190:A2 5.46907e-05
15 *190:S0 *192:S 5.00529e-05
16 *190:S0 *285:A 1.00114e-05
17 *190:S0 *157:10 0
18 *190:S0 *157:85 0
19 *190:S0 *158:27 1.01794e-05
20 *191:S0 *190:S1 5.46286e-05
21 *191:S0 *191:A0 2.40589e-05
22 *282:B *282:A 6.61829e-06
23 *282:B *289:A 2.98253e-05
24 *282:B *159:23 0.000133541
25 *282:B *171:10 0
26 *282:B *171:18 0
27 *287:A2 *286:A1 0.000279872
28 *287:A2 *287:B1 0.000115934
29 *290:C *289:A 2.01028e-05
30 *156:23 *286:A1 7.14746e-05
31 *156:35 *285:A 3.28433e-06
32 *156:35 *157:85 0
33 *156:55 *290:A 2.1801e-05
34 *192:A1 *191:S0 8.33829e-06
35 *281:A *156:33 6.28947e-05
36 *281:A *156:35 9.65752e-06
37 *281:B *156:33 0.000165391
38 *286:B2 *156:33 0
39 *288:B *287:A2 0
40 *288:B *156:23 0
41 *320:CLK *287:A2 0
42 *323:D *282:B 0
43 *327:A *191:S0 7.45448e-05
44 *12:243 *156:55 1.92336e-05
45 *12:252 *156:55 0.000324151
46 *12:258 *156:33 4.34143e-05
47 *12:370 *156:55 0.000220183
48 *108:42 *156:33 0.000109521
49 *109:19 *156:55 0.000319954
50 *109:32 *156:33 3.31745e-05
51 *138:49 *191:S0 6.69554e-05
52 *140:12 *190:S0 0
53 *140:45 *190:S0 0
54 *140:58 *190:S0 0
*RES
1 *320:Q *156:8 19.5148 
2 *156:8 *287:A2 19.8168 
3 *156:8 *156:23 5.91674 
4 *156:23 *156:33 16.2726 
5 *156:33 *156:35 1.00149 
6 *156:35 *190:S0 14.637 
7 *156:35 *285:C 13.8 
8 *156:33 *156:55 19.7063 
9 *156:55 *290:C 14.8015 
10 *156:55 *282:B 21.4778 
11 *156:23 *280:S 10.6021 
12 *190:S0 *191:S0 9.64528 
*END

*D_NET *157 0.00780471
*CONN
*I *283:A1 I *D sky130_fd_sc_hd__a22oi_1
*I *282:A I *D sky130_fd_sc_hd__xor2_1
*I *287:A1 I *D sky130_fd_sc_hd__a21oi_1
*I *285:B I *D sky130_fd_sc_hd__nand3_1
*I *290:B I *D sky130_fd_sc_hd__nand4_1
*I *191:S1 I *D sky130_fd_sc_hd__mux4_2
*I *190:S1 I *D sky130_fd_sc_hd__mux4_2
*I *321:Q O *D sky130_fd_sc_hd__dfxtp_1
*CAP
1 *283:A1 1.81917e-05
2 *282:A 0.000129476
3 *287:A1 0.000211135
4 *285:B 0
5 *290:B 0.000269511
6 *191:S1 0.000229968
7 *190:S1 0.000442862
8 *321:Q 0.000322492
9 *157:85 0.000391972
10 *157:63 0.00026847
11 *157:59 0.000390793
12 *157:37 0.000719261
13 *157:10 0.000834551
14 *157:8 0.000583553
15 *190:S1 *190:A2 6.08467e-05
16 *191:S1 *191:A0 8.62625e-06
17 *191:S1 *191:A1 6.3657e-05
18 *191:S1 *191:A3 6.50586e-05
19 *191:S1 *165:10 2.36494e-05
20 *282:A *159:23 0.00017419
21 *287:A1 *287:B1 0.000118166
22 *287:A1 *290:A 4.77281e-05
23 *290:B *289:A 0.000122098
24 *157:37 *192:S 7.48633e-05
25 *157:63 *290:A 0.000425067
26 *190:S0 *157:10 0
27 *190:S0 *157:85 0
28 *191:S0 *190:S1 5.46286e-05
29 *192:A0 *157:37 0.000330596
30 *192:A1 *190:S1 0
31 *201:A1 *157:37 0.000120712
32 *282:B *282:A 6.61829e-06
33 *283:A2 *283:A1 1.09551e-05
34 *283:A2 *157:85 1.90494e-05
35 *283:B2 *282:A 0.000148617
36 *284:B *282:A 6.73022e-05
37 *284:B *157:85 0
38 *288:A *287:A1 3.29867e-05
39 *288:C *287:A1 0.00018584
40 *291:A1 *290:B 0
41 *321:D *157:10 0
42 *321:D *157:59 0
43 *12:9 *191:S1 0
44 *12:9 *290:B 0
45 *12:13 *290:B 0
46 *12:252 *157:63 5.07314e-05
47 *12:258 *157:85 7.2401e-05
48 *12:370 *287:A1 6.98337e-06
49 *12:370 *157:63 0.000135358
50 *108:23 *282:A 5.99856e-05
51 *108:23 *157:85 2.41483e-05
52 *108:42 *157:85 0.000114498
53 *109:19 *282:A 5.68225e-06
54 *109:19 *157:85 0
55 *138:49 *190:S1 0
56 *138:49 *191:S1 3.13756e-05
57 *138:49 *290:B 3.18655e-06
58 *140:12 *190:S1 3.31882e-05
59 *140:45 *190:S1 0.000111358
60 *140:45 *157:10 3.31882e-05
61 *140:58 *157:10 0.000111358
62 *140:62 *157:8 1.83795e-06
63 *140:103 *157:8 3.59374e-05
64 *156:35 *157:85 0
*RES
1 *321:Q *157:8 18.4056 
2 *157:8 *157:10 4.73876 
3 *157:10 *190:S1 23.5036 
4 *157:10 *157:37 16.5715 
5 *157:37 *191:S1 19.5437 
6 *157:37 *290:B 20.1998 
7 *157:8 *157:59 1.832 
8 *157:59 *157:63 9.10562 
9 *157:63 *285:B 9.3 
10 *157:63 *287:A1 14.6531 
11 *157:59 *157:85 11.9047 
12 *157:85 *282:A 24.1802 
13 *157:85 *283:A1 9.87872 
*END

*D_NET *158 0.00715512
*CONN
*I *287:B1 I *D sky130_fd_sc_hd__a21oi_1
*I *286:A1 I *D sky130_fd_sc_hd__a22oi_1
*I *285:A I *D sky130_fd_sc_hd__nand3_1
*I *290:A I *D sky130_fd_sc_hd__nand4_1
*I *192:S I *D sky130_fd_sc_hd__mux2_1
*I *322:Q O *D sky130_fd_sc_hd__dfxtp_1
*CAP
1 *287:B1 0.000121453
2 *286:A1 0.000537874
3 *285:A 3.40051e-05
4 *290:A 0.000548999
5 *192:S 0.000411091
6 *322:Q 0.000350804
7 *158:55 0.000717715
8 *158:27 0.000633978
9 *158:10 0.000724236
10 *158:6 0.000671364
11 *190:S0 *192:S 5.00529e-05
12 *190:S0 *285:A 1.00114e-05
13 *190:S0 *158:27 1.01794e-05
14 *192:A0 *192:S 5.51483e-06
15 *201:A1 *192:S 0
16 *249:A2 *286:A1 0.000138745
17 *286:A2 *286:A1 1.67329e-05
18 *287:A1 *287:B1 0.000118166
19 *287:A1 *290:A 4.77281e-05
20 *287:A2 *286:A1 0.000279872
21 *287:A2 *287:B1 0.000115934
22 *288:B *286:A1 5.04829e-06
23 *288:C *287:B1 1.61631e-05
24 *291:A2 *290:A 1.09551e-05
25 *295:CLK *192:S 0.000424623
26 *320:CLK *192:S 1.19971e-05
27 *320:CLK *285:A 1.73012e-05
28 *320:CLK *286:A1 0
29 *320:CLK *158:55 0
30 *321:D *290:A 6.08467e-05
31 *322:D *192:S 3.06627e-05
32 *322:D *285:A 8.03393e-06
33 *322:D *158:10 0.000146934
34 *322:D *158:27 6.65668e-05
35 *12:243 *290:A 6.50727e-05
36 *12:252 *290:A 6.00785e-05
37 *109:19 *290:A 7.97944e-05
38 *140:103 *158:10 1.00981e-05
39 *156:23 *286:A1 7.14746e-05
40 *156:35 *285:A 3.28433e-06
41 *156:55 *290:A 2.1801e-05
42 *157:37 *192:S 7.48633e-05
43 *157:63 *290:A 0.000425067
*RES
1 *322:Q *158:6 14.4602 
2 *158:6 *158:10 8.55102 
3 *158:10 *192:S 25.2745 
4 *158:10 *158:27 1.41674 
5 *158:27 *290:A 25.8325 
6 *158:27 *285:A 14.8015 
7 *158:6 *158:55 5.70912 
8 *158:55 *286:A1 29.2138 
9 *158:55 *287:B1 17.3227 
*END

*D_NET *159 0.00538406
*CONN
*I *278:A1 I *D sky130_fd_sc_hd__o21ai_0
*I *194:A I *D sky130_fd_sc_hd__nor4b_1
*I *195:A I *D sky130_fd_sc_hd__nand2_1
*I *289:A I *D sky130_fd_sc_hd__nand2_1
*I *323:Q O *D sky130_fd_sc_hd__dfxtp_1
*CAP
1 *278:A1 2.06324e-05
2 *194:A 5.65617e-05
3 *195:A 0.000164095
4 *289:A 0.0002773
5 *323:Q 0
6 *159:33 0.00091869
7 *159:23 0.00122298
8 *159:6 0.00078161
9 *194:A *194:D_N 6.92705e-05
10 *195:A *194:B 0
11 *195:A *194:D_N 4.40506e-05
12 *159:23 *278:A2 0.000217937
13 *204:B *159:33 0.000317707
14 *262:A1 *159:33 3.67523e-05
15 *262:A2 *159:33 7.97944e-05
16 *269:A *194:A 7.34948e-06
17 *269:A *159:33 1.79807e-05
18 *278:B1 *195:A 3.5534e-06
19 *282:A *159:23 0.00017419
20 *282:B *289:A 2.98253e-05
21 *282:B *159:23 0.000133541
22 *284:B *289:A 0
23 *290:B *289:A 0.000122098
24 *290:C *289:A 2.01028e-05
25 *12:13 *289:A 0
26 *12:179 *195:A 0
27 *12:243 *289:A 0.000319801
28 *39:14 *195:A 0
29 *39:14 *159:33 0
30 *109:19 *289:A 0
31 *109:19 *159:23 0
32 *126:23 *195:A 0
33 *126:23 *159:33 0
34 *133:8 *194:A 2.42138e-05
35 *140:66 *289:A 0.000324027
*RES
1 *323:Q *159:6 13.8 
2 *159:6 *289:A 22.8657 
3 *159:6 *159:23 18.0053 
4 *159:23 *159:33 17.1084 
5 *159:33 *195:A 17.7083 
6 *159:33 *194:A 15.6326 
7 *159:23 *278:A1 9.87872 
*END

*D_NET *160 0.00142866
*CONN
*I *190:A0 I *D sky130_fd_sc_hd__mux4_2
*I *182:A0 I *D sky130_fd_sc_hd__mux2_1
*I *294:Q O *D sky130_fd_sc_hd__dfxtp_1
*CAP
1 *190:A0 0.000315597
2 *182:A0 6.35268e-05
3 *294:Q 0.000265526
4 *160:12 0.00064465
5 *190:A0 *183:A0 0
6 *190:A0 *161:12 0
7 *182:S *182:A0 2.41483e-05
8 *183:S *190:A0 5.01375e-05
9 *3:17 *182:A0 6.50727e-05
*RES
1 *294:Q *160:12 24.4589 
2 *160:12 *182:A0 11.1326 
3 *160:12 *190:A0 26.2537 
*END

*D_NET *161 0.00154441
*CONN
*I *190:A1 I *D sky130_fd_sc_hd__mux4_2
*I *183:A0 I *D sky130_fd_sc_hd__mux2_1
*I *295:Q O *D sky130_fd_sc_hd__dfxtp_1
*CAP
1 *190:A1 0
2 *183:A0 0.000180825
3 *295:Q 0.000288254
4 *161:12 0.000469078
5 *183:S *183:A0 3.22024e-05
6 *190:A0 *183:A0 0
7 *190:A0 *161:12 0
8 *192:A0 *161:12 0.000326398
9 *295:D *183:A0 8.42523e-05
10 *295:D *161:12 4.52324e-05
11 *4:17 *183:A0 0.000118166
*RES
1 *295:Q *161:12 22.3408 
2 *161:12 *183:A0 19.8168 
3 *161:12 *190:A1 13.8 
*END

*D_NET *162 0.00176197
*CONN
*I *190:A2 I *D sky130_fd_sc_hd__mux4_2
*I *184:A0 I *D sky130_fd_sc_hd__mux2_1
*I *296:Q O *D sky130_fd_sc_hd__dfxtp_1
*CAP
1 *190:A2 0.000266276
2 *184:A0 0.000396418
3 *296:Q 0.000662693
4 *184:A0 *185:A0 6.92705e-05
5 *190:A2 *190:A3 6.29501e-05
6 *184:A1 *184:A0 2.65831e-05
7 *190:S0 *190:A2 5.46907e-05
8 *190:S1 *190:A2 6.08467e-05
9 *4:17 *184:A0 7.50872e-05
10 *4:17 *190:A2 6.40514e-06
11 *128:53 *184:A0 1.00937e-05
12 *128:62 *184:A0 7.0656e-05
13 *140:12 *190:A2 0
14 *140:27 *184:A0 0
*RES
1 *296:Q *184:A0 34.7316 
2 *296:Q *190:A2 33.2337 
*END

*D_NET *163 0.00130968
*CONN
*I *190:A3 I *D sky130_fd_sc_hd__mux4_2
*I *185:A0 I *D sky130_fd_sc_hd__mux2_1
*I *297:Q O *D sky130_fd_sc_hd__dfxtp_1
*CAP
1 *190:A3 0.000234899
2 *185:A0 0.000136698
3 *297:Q 0.000134209
4 *163:8 0.000505806
5 *184:A0 *185:A0 6.92705e-05
6 *190:A2 *190:A3 6.29501e-05
7 *295:D *190:A3 4.19421e-05
8 *3:17 *185:A0 6.75453e-05
9 *3:17 *163:8 2.61242e-05
10 *4:17 *190:A3 0
11 *4:17 *163:8 0
12 *128:62 *185:A0 2.23124e-05
13 *128:71 *185:A0 7.92757e-06
14 *140:12 *190:A3 0
*RES
1 *297:Q *163:8 16.8778 
2 *163:8 *185:A0 17.2964 
3 *163:8 *190:A3 20.1998 
*END

*D_NET *164 0.00282956
*CONN
*I *191:A0 I *D sky130_fd_sc_hd__mux4_2
*I *186:A0 I *D sky130_fd_sc_hd__mux2_1
*I *298:Q O *D sky130_fd_sc_hd__dfxtp_1
*CAP
1 *191:A0 0.00104002
2 *186:A0 0.000190373
3 *298:Q 0.00123039
4 *191:A0 *187:A0 0
5 *191:S0 *191:A0 2.40589e-05
6 *191:S1 *191:A0 8.62625e-06
7 *296:CLK *191:A0 4.30017e-06
8 *301:CLK *191:A0 1.43983e-05
9 *301:D *191:A0 3.03605e-05
10 *1:22 *186:A0 3.34802e-05
11 *2:17 *186:A0 0.000206977
12 *2:17 *191:A0 9.42133e-06
13 *128:27 *186:A0 1.79672e-05
14 *138:49 *191:A0 1.91858e-05
*RES
1 *298:Q *186:A0 31.4039 
2 *298:Q *191:A0 43.7712 
*END

*D_NET *165 0.00187901
*CONN
*I *191:A1 I *D sky130_fd_sc_hd__mux4_2
*I *187:A0 I *D sky130_fd_sc_hd__mux2_1
*I *299:Q O *D sky130_fd_sc_hd__dfxtp_1
*CAP
1 *191:A1 2.33167e-05
2 *187:A0 0.000476529
3 *299:Q 0.000166218
4 *165:10 0.000666063
5 *187:A0 *189:A0 3.00073e-05
6 *187:A0 *191:A3 0.000126632
7 *184:A1 *187:A0 0.000222699
8 *187:A1 *187:A0 3.14978e-05
9 *191:A0 *187:A0 0
10 *191:S1 *191:A1 6.3657e-05
11 *191:S1 *165:10 2.36494e-05
12 *201:A1 *165:10 4.87439e-05
13 *296:D *187:A0 0
14 *12:9 *187:A0 0
15 *12:9 *165:10 0
16 *140:27 *187:A0 0
*RES
1 *299:Q *165:10 17.3252 
2 *165:10 *187:A0 27.2941 
3 *165:10 *191:A1 14.5234 
*END

*D_NET *166 0.00275132
*CONN
*I *191:A2 I *D sky130_fd_sc_hd__mux4_2
*I *188:A0 I *D sky130_fd_sc_hd__mux2_1
*I *300:Q O *D sky130_fd_sc_hd__dfxtp_1
*CAP
1 *191:A2 0.000441998
2 *188:A0 0.00021839
3 *300:Q 0.000405473
4 *166:12 0.00106586
5 read_en *166:12 7.14746e-05
6 tx *166:12 0
7 *186:A1 *166:12 0
8 *1:22 *166:12 0
9 *2:17 *166:12 0
10 *128:14 *188:A0 0.000122378
11 *128:27 *188:A0 3.75233e-05
12 *128:27 *166:12 0.000388217
*RES
1 *300:Q *166:12 29.1604 
2 *166:12 *188:A0 12.7964 
3 *166:12 *191:A2 15.5694 
*END

*D_NET *167 0.00124161
*CONN
*I *191:A3 I *D sky130_fd_sc_hd__mux4_2
*I *189:A0 I *D sky130_fd_sc_hd__mux2_1
*I *301:Q O *D sky130_fd_sc_hd__dfxtp_1
*CAP
1 *191:A3 0.000154788
2 *189:A0 0.000249937
3 *301:Q 0
4 *167:6 0.000404726
5 *187:A0 *189:A0 3.00073e-05
6 *187:A0 *191:A3 0.000126632
7 *189:A1 *189:A0 2.65831e-05
8 *191:S1 *191:A3 6.50586e-05
9 *12:9 *189:A0 3.00073e-05
10 *12:9 *191:A3 0.000121405
11 *128:31 *189:A0 1.00937e-05
12 *128:40 *189:A0 1.31764e-05
13 *128:53 *189:A0 9.19886e-06
*RES
1 *301:Q *167:6 13.8 
2 *167:6 *189:A0 18.1586 
3 *167:6 *191:A3 19.8168 
*END

*D_NET *2 0.00447105
*CONN
*P empty I
*I *196:A1 I *D sky130_fd_sc_hd__a21oi_1
*I *198:D I *D sky130_fd_sc_hd__or4_1
*CAP
1 empty 0.0010711
2 *196:A1 0
3 *198:D 0.000314495
4 *2:17 0.0013856
5 *198:D *196:B1 2.41483e-05
6 *198:D *197:B 7.25324e-06
7 *198:D *170:8 0.000164829
8 *198:D *170:15 0.00019814
9 *2:17 read_en 0
10 *2:17 tx 0.00023182
11 *2:17 *186:A0 0.000206977
12 *2:17 *191:A0 9.42133e-06
13 *2:17 *197:B 1.01085e-05
14 *2:17 *298:D 0.000223132
15 *2:17 *301:CLK 0.000494062
16 *2:17 *301:D 0.000100247
17 *2:17 *3:17 5.48689e-06
18 *2:17 *6:15 0
19 *2:17 *139:86 2.42273e-05
20 *2:17 *166:12 0
*RES
1 empty *2:17 30.2881 
2 *2:17 *198:D 16.3169 
3 *2:17 *196:A1 9.3 
*END

*D_NET *3 0.00449089
*CONN
*P output_data[0] I
*I *182:A1 I *D sky130_fd_sc_hd__mux2_1
*CAP
1 output_data[0] 0.000887329
2 *182:A1 0
3 *3:17 0.000887329
4 *3:17 *182:A0 6.50727e-05
5 *3:17 *182:S 6.50727e-05
6 *3:17 *185:A0 6.75453e-05
7 *3:17 *4:17 0.00174617
8 *3:17 *6:15 0.00021272
9 *3:17 *128:71 0.000528047
10 *3:17 *163:8 2.61242e-05
11 *2:17 *3:17 5.48689e-06
*RES
1 output_data[0] *3:17 47.8426 
2 *3:17 *182:A1 9.3 
*END

*D_NET *4 0.00529293
*CONN
*P output_data[1] I
*I *183:A1 I *D sky130_fd_sc_hd__mux2_1
*CAP
1 output_data[1] 0.000819047
2 *183:A1 0
3 *4:17 0.000819047
4 *4:17 *183:A0 0.000118166
5 *4:17 *183:S 1.19856e-05
6 *4:17 *184:A0 7.50872e-05
7 *4:17 *189:A1 1.67473e-05
8 *4:17 *190:A2 6.40514e-06
9 *4:17 *190:A3 0
10 *4:17 *6:15 0.00166701
11 *4:17 *12:9 1.326e-05
12 *4:17 *163:8 0
13 *3:17 *4:17 0.00174617
*RES
1 output_data[1] *4:17 44.7881 
2 *4:17 *183:A1 9.3 
*END

*D_NET *5 0.00152945
*CONN
*P output_data[2] I
*I *184:A1 I *D sky130_fd_sc_hd__mux2_1
*CAP
1 output_data[2] 0.000417497
2 *184:A1 0.000417497
3 *184:A1 *184:A0 2.65831e-05
4 *184:A1 *187:A0 0.000222699
5 *184:A1 *187:S 6.80864e-05
6 *184:A1 *12:9 0.00012653
7 *184:A1 *128:53 0.000250557
*RES
1 output_data[2] *184:A1 28.2523 
*END

*D_NET *6 0.00348923
*CONN
*P output_data[3] I
*I *185:A1 I *D sky130_fd_sc_hd__mux2_1
*CAP
1 output_data[3] 0.000787574
2 *185:A1 0
3 *6:15 0.000787574
4 *6:15 read_en 3.43458e-05
5 *6:15 *297:D 0
6 *6:15 *140:27 0
7 *2:17 *6:15 0
8 *3:17 *6:15 0.00021272
9 *4:17 *6:15 0.00166701
*RES
1 output_data[3] *6:15 41.5732 
2 *6:15 *185:A1 9.3 
*END

*D_NET *7 0.000871259
*CONN
*P output_data[4] I
*I *186:A1 I *D sky130_fd_sc_hd__mux2_1
*CAP
1 output_data[4] 0.000255663
2 *186:A1 0.000255663
3 *186:A1 read_en 0.000149853
4 *186:A1 *188:A1 5.48689e-06
5 *186:A1 *128:27 9.34396e-06
6 *186:A1 *166:12 0
7 *1:22 *186:A1 0.000195249
*RES
1 output_data[4] *186:A1 23.6101 
*END

*D_NET *8 0.000805029
*CONN
*P output_data[5] I
*I *187:A1 I *D sky130_fd_sc_hd__mux2_1
*CAP
1 output_data[5] 0.000297642
2 *187:A1 0.000297642
3 *187:A1 tx 9.08676e-05
4 *187:A1 *187:A0 3.14978e-05
5 *187:A1 *189:A1 8.73803e-05
*RES
1 output_data[5] *187:A1 20.3569 
*END

*D_NET *9 0.00185208
*CONN
*P output_data[6] I
*I *188:A1 I *D sky130_fd_sc_hd__mux2_1
*CAP
1 output_data[6] 0.000724229
2 *188:A1 0.000724229
3 *188:A1 *197:B 0
4 *188:A1 *298:D 3.77659e-05
5 *188:A1 *300:D 0.000157102
6 *188:A1 *128:14 0.000115632
7 *186:A1 *188:A1 5.48689e-06
8 *1:22 *188:A1 8.7632e-05
*RES
1 output_data[6] *188:A1 43.2663 
*END

*D_NET *10 0.000835525
*CONN
*P output_data[7] I
*I *189:A1 I *D sky130_fd_sc_hd__mux2_1
*CAP
1 output_data[7] 0.00027009
2 *189:A1 0.00027009
3 *189:A1 tx 0
4 *189:A1 *189:A0 2.65831e-05
5 *189:A1 *299:D 6.66538e-05
6 *189:A1 *12:9 7.13971e-05
7 *189:A1 *128:31 2.65831e-05
8 *187:A1 *189:A1 8.73803e-05
9 *4:17 *189:A1 1.67473e-05
*RES
1 output_data[7] *189:A1 22.7063 
*END

*D_NET *11 0.00400925
*CONN
*P read_en O
*I *292:B1 I *D sky130_fd_sc_hd__o31ai_1
*I *324:Q O *D sky130_fd_sc_hd__dfxtp_1
*CAP
1 read_en 0.00134912
2 *292:B1 0.000456403
3 *324:Q 0.00180552
4 read_en *128:31 1.41976e-05
5 read_en *166:12 7.14746e-05
6 *292:B1 *199:A3 3.49272e-05
7 *292:B1 *293:A1 0
8 *292:B1 *293:B1 9.34088e-05
9 *292:B1 *319:D 0
10 *292:B1 *169:12 0
11 *186:A1 read_en 0.000149853
12 *2:17 read_en 0
13 *6:15 read_en 3.43458e-05
*RES
1 *324:Q read_en 36.9895 
2 *324:Q *292:B1 37.0809 
*END

*D_NET *12 0.0343091
*CONN
*P rst I
*I *288:A I *D sky130_fd_sc_hd__nor3_1
*I *281:A I *D sky130_fd_sc_hd__nor2_1
*I *251:A I *D sky130_fd_sc_hd__nor3_1
*I *243:A I *D sky130_fd_sc_hd__nor3_1
*I *238:C1 I *D sky130_fd_sc_hd__a211oi_1
*I *259:B1 I *D sky130_fd_sc_hd__a21oi_1
*I *247:B1 I *D sky130_fd_sc_hd__a21oi_1
*I *256:A I *D sky130_fd_sc_hd__nor3_1
*I *284:A I *D sky130_fd_sc_hd__nor2_1
*I *291:B1 I *D sky130_fd_sc_hd__a21oi_1
*I *230:A I *D sky130_fd_sc_hd__nor3_1
*I *234:A I *D sky130_fd_sc_hd__nor3_1
*I *270:A I *D sky130_fd_sc_hd__nor3_1
*I *272:B1 I *D sky130_fd_sc_hd__a31oi_1
*I *199:B1 I *D sky130_fd_sc_hd__a31oi_1
*I *277:B1 I *D sky130_fd_sc_hd__a21oi_1
*I *222:A I *D sky130_fd_sc_hd__nor3_1
*I *226:A I *D sky130_fd_sc_hd__nor3_1
*I *217:A I *D sky130_fd_sc_hd__nor3_1
*I *213:B1 I *D sky130_fd_sc_hd__a21oi_1
*I *209:A I *D sky130_fd_sc_hd__nor2_1
*I *275:A I *D sky130_fd_sc_hd__nor2_1
*I *292:A3 I *D sky130_fd_sc_hd__o31ai_1
*I *293:A3 I *D sky130_fd_sc_hd__o41ai_1
*I *181:A I *D sky130_fd_sc_hd__nor2_1
*CAP
1 rst 0.000810159
2 *288:A 7.82558e-05
3 *281:A 0.000135235
4 *251:A 0.000406013
5 *243:A 0.000136846
6 *238:C1 0.000266533
7 *259:B1 1.2835e-05
8 *247:B1 0.0002321
9 *256:A 0.000355472
10 *284:A 0
11 *291:B1 0
12 *230:A 0
13 *234:A 0.000363219
14 *270:A 2.59228e-05
15 *272:B1 0
16 *199:B1 0
17 *277:B1 0
18 *222:A 0
19 *226:A 0.000121425
20 *217:A 2.7855e-05
21 *213:B1 0.000111938
22 *209:A 4.11783e-05
23 *275:A 0
24 *292:A3 7.90524e-05
25 *293:A3 0.000247767
26 *181:A 1.418e-05
27 *12:370 0.000279114
28 *12:325 0.000574714
29 *12:308 0.000248571
30 *12:287 0.000543171
31 *12:279 0.000834505
32 *12:258 0.0011072
33 *12:252 0.000701856
34 *12:243 0.000458746
35 *12:198 0.00105545
36 *12:179 0.00120379
37 *12:138 0.000380966
38 *12:123 0.000520599
39 *12:112 0.000539317
40 *12:101 0.000753658
41 *12:92 0.000582454
42 *12:88 0.000195557
43 *12:64 0.000475601
44 *12:60 0.0003078
45 *12:58 0.000384552
46 *12:46 0.000483575
47 *12:23 0.000262727
48 *12:17 0.0010131
49 *12:13 0.000488295
50 *12:9 0.00128531
51 *209:A *209:B 5.0715e-05
52 *213:B1 *303:CLK 0.00027329
53 *213:B1 *141:16 0.00011818
54 *213:B1 *143:106 6.92705e-05
55 *217:A *217:B 6.08467e-05
56 *226:A *221:A2 0.00012658
57 *226:A *221:A3 1.75925e-05
58 *226:A *51:140 0.000208369
59 *226:A *141:8 2.02035e-05
60 *226:A *148:8 8.26073e-05
61 *226:A *148:14 1.5714e-05
62 *226:A *148:57 0.000204088
63 *234:A *228:A1 0.000269163
64 *234:A *228:B1 2.65667e-05
65 *234:A *230:B 6.93887e-05
66 *234:A *232:B1 0
67 *234:A *234:B 0.000115934
68 *234:A *234:C 0.000157645
69 *234:A *309:D 6.50727e-05
70 *234:A *51:124 8.2862e-05
71 *234:A *51:130 1.53708e-05
72 *238:C1 *176:A 0.000139435
73 *238:C1 *51:118 0.000167076
74 *238:C1 *78:22 0.000266832
75 *238:C1 *78:67 0.000352405
76 *238:C1 *142:45 0.000172954
77 *238:C1 *154:22 3.0902e-05
78 *238:C1 *155:39 1.41307e-05
79 *243:A *242:B 0.000120767
80 *243:A *246:A 8.60778e-05
81 *243:A *312:D 0.000111838
82 *243:A *78:67 0.000107496
83 *243:A *78:69 8.03393e-06
84 *243:A *155:39 7.5301e-06
85 *247:B1 *247:A2 3.20069e-06
86 *247:B1 *250:A2 0.000107496
87 *247:B1 *250:B1 0.000186471
88 *247:B1 *251:C 8.62625e-06
89 *247:B1 *53:134 7.65861e-05
90 *251:A *251:B 1.2693e-05
91 *251:A *313:CLK 0
92 *251:A *313:D 7.82754e-05
93 *251:A *53:123 0.000198857
94 *251:A *144:6 2.86013e-06
95 *251:A *144:23 3.02258e-05
96 *256:A *253:A2 9.75356e-05
97 *256:A *255:A 2.51527e-05
98 *256:A *255:B 0.000162594
99 *256:A *256:C 7.54161e-05
100 *256:A *267:A 2.47484e-05
101 *256:A *53:110 0.000357898
102 *259:B1 *250:B1 6.3657e-05
103 *259:B1 *259:A1 6.08467e-05
104 *270:A *171:66 6.50727e-05
105 *281:A *286:B2 0.000120872
106 *281:A *288:B 1.19971e-05
107 *281:A *320:CLK 4.73113e-06
108 *281:A *320:D 6.36477e-05
109 *281:A *156:33 6.28947e-05
110 *281:A *156:35 9.65752e-06
111 *288:A *287:A1 3.29867e-05
112 *288:A *288:B 6.50586e-05
113 *288:A *288:C 0.000169041
114 *292:A3 *276:A3 6.08467e-05
115 *292:A3 *292:A1 2.20702e-05
116 *292:A3 *292:A2 0.000217937
117 *292:A3 *293:B1 6.92705e-05
118 *292:A3 *168:56 0.000137293
119 *292:A3 *168:58 3.8519e-05
120 *292:A3 *169:36 2.97421e-05
121 *293:A3 *293:A1 0.000496689
122 *293:A3 *293:A2 0.000548459
123 *293:A3 *293:A4 3.62225e-05
124 *293:A3 *168:32 2.09495e-05
125 *293:A3 *168:34 0.000111343
126 *293:A3 *169:12 9.24241e-05
127 *12:9 tx 0
128 *12:9 *187:A0 0
129 *12:9 *187:S 0.000153225
130 *12:9 *189:A0 3.00073e-05
131 *12:9 *191:A3 0.000121405
132 *12:9 *191:S1 0
133 *12:9 *290:B 0
134 *12:9 *299:CLK 0
135 *12:9 *299:D 0
136 *12:9 *323:CLK 0
137 *12:9 *13:8 0
138 *12:9 *165:10 0
139 *12:13 *289:A 0
140 *12:13 *290:B 0
141 *12:13 *291:A1 3.34802e-05
142 *12:13 *323:CLK 0
143 *12:17 *180:A 3.58208e-05
144 *12:17 *279:B 0.000632015
145 *12:17 *109:6 9.90116e-05
146 *12:17 *171:18 8.90311e-06
147 *12:23 *201:A2 0.00014702
148 *12:23 *127:10 0
149 *12:46 *272:A1 0.000164172
150 *12:46 *272:A2 6.50586e-05
151 *12:46 *272:A3 0
152 *12:46 *302:CLK 6.61199e-05
153 *12:58 *199:A2 4.73106e-06
154 *12:58 *200:B 6.08467e-05
155 *12:58 *202:SLEEP 9.16936e-05
156 *12:58 *271:B1 8.08324e-05
157 *12:58 *272:A1 0.000115934
158 *12:58 *272:A2 0.000169041
159 *12:58 *272:A3 5.22818e-05
160 *12:58 *277:A1 4.91225e-06
161 *12:58 *302:CLK 2.83829e-05
162 *12:58 *39:14 9.82896e-06
163 *12:58 *169:62 9.26352e-06
164 *12:60 *277:A1 1.65872e-05
165 *12:64 *199:A1 1.44611e-05
166 *12:64 *199:A3 1.2819e-05
167 *12:64 *168:30 0.000382604
168 *12:64 *168:32 5.41377e-05
169 *12:64 *169:10 9.24241e-05
170 *12:64 *169:12 6.79599e-05
171 *12:64 *169:62 0.000200236
172 *12:88 *199:A2 4.80635e-06
173 *12:88 *271:B1 0
174 *12:88 *277:A1 0.000271058
175 *12:88 *319:D 3.072e-06
176 *12:88 *169:62 1.41291e-05
177 *12:88 *169:72 5.481e-05
178 *12:92 *199:A1 0
179 *12:92 *275:B 5.22654e-06
180 *12:92 *317:CLK 0
181 *12:92 *318:D 0.000104731
182 *12:92 *169:72 5.54078e-05
183 *12:101 *199:A1 0
184 *12:101 *273:A1 0
185 *12:101 *275:B 6.28454e-05
186 *12:101 *317:CLK 0
187 *12:101 *141:37 0
188 *12:112 *303:D 0
189 *12:112 *141:37 0
190 *12:123 *215:B1 2.47808e-05
191 *12:123 *217:C 5.53934e-05
192 *12:123 *221:A3 0
193 *12:123 *307:D 5.41227e-05
194 *12:123 *53:35 0
195 *12:123 *143:106 0
196 *12:123 *148:22 7.56859e-06
197 *12:138 *217:C 1.2693e-05
198 *12:138 *222:B 3.82228e-05
199 *12:138 *222:C 6.92705e-05
200 *12:138 *305:D 0
201 *12:138 *307:D 0.000175689
202 *12:179 *195:A 0
203 *12:179 *201:A2 2.77564e-05
204 *12:179 *262:A2 0
205 *12:179 *262:B1 0
206 *12:179 *265:A1 1.58706e-05
207 *12:179 *268:A1 0
208 *12:179 *270:C 0
209 *12:179 *316:D 4.27148e-05
210 *12:179 *126:23 0.00014506
211 *12:179 *133:10 5.67568e-05
212 *12:179 *133:36 0.000105832
213 *12:198 *218:D 0
214 *12:198 *227:B1 2.94753e-05
215 *12:198 *230:B 1.65872e-05
216 *12:198 *264:C 4.58666e-05
217 *12:198 *264:D 0.000328966
218 *12:198 *51:26 0
219 *12:198 *51:130 2.16355e-05
220 *12:198 *62:8 0
221 *12:198 *62:42 0
222 *12:198 *138:81 0
223 *12:198 *151:37 0.000156875
224 *12:198 *151:39 0.000224829
225 *12:243 *284:B 1.07248e-05
226 *12:243 *289:A 0.000319801
227 *12:243 *290:A 6.50727e-05
228 *12:243 *321:D 9.75356e-05
229 *12:243 *140:62 2.01874e-05
230 *12:243 *140:66 0.000120742
231 *12:243 *156:55 1.92336e-05
232 *12:252 *290:A 6.00785e-05
233 *12:252 *156:55 0.000324151
234 *12:252 *157:63 5.07314e-05
235 *12:258 *249:A2 5.74625e-05
236 *12:258 *259:A1 8.70182e-05
237 *12:258 *283:B2 0
238 *12:258 *286:B2 0
239 *12:258 *51:93 1.42932e-05
240 *12:258 *108:42 0
241 *12:258 *109:19 0
242 *12:258 *109:32 0
243 *12:258 *155:54 0
244 *12:258 *156:33 4.34143e-05
245 *12:258 *157:85 7.2401e-05
246 *12:279 *53:110 0.000139947
247 *12:279 *53:123 0.000110306
248 *12:287 *259:A2 0.000193761
249 *12:287 *315:D 0.000138523
250 *12:287 *144:33 0.000180404
251 *12:287 *155:52 0.000101555
252 *12:287 *155:54 0.000157906
253 *12:308 *259:A2 7.40869e-05
254 *12:308 *155:52 2.28064e-05
255 *12:325 *242:B 3.06627e-05
256 *12:325 *250:A2 4.53287e-05
257 *12:325 *312:D 5.94197e-06
258 *12:325 *78:69 7.05714e-06
259 *12:325 *142:8 0
260 *12:325 *142:12 0
261 *12:325 *155:39 5.65074e-05
262 *12:325 *155:52 8.03393e-06
263 *12:370 *287:A1 6.98337e-06
264 *12:370 *156:55 0.000220183
265 *12:370 *157:63 0.000135358
266 *184:A1 *12:9 0.00012653
267 *189:A1 *12:9 7.13971e-05
268 *4:17 *12:9 1.326e-05
*RES
1 rst *12:9 22.79 
2 *12:9 *12:13 6.74725 
3 *12:13 *12:17 15.7609 
4 *12:17 *12:23 7.8859 
5 *12:23 *181:A 9.95106 
6 *12:23 *12:46 6.07653 
7 *12:46 *12:58 11.5261 
8 *12:58 *12:60 0.723396 
9 *12:60 *12:64 12.1455 
10 *12:64 *293:A3 26.0483 
11 *12:64 *292:A3 17.851 
12 *12:60 *12:88 4.62973 
13 *12:88 *12:92 7.1625 
14 *12:92 *275:A 13.8 
15 *12:92 *12:101 13.4591 
16 *12:101 *209:A 15.078 
17 *12:101 *12:112 4.32351 
18 *12:112 *213:B1 17.851 
19 *12:112 *12:123 5.98452 
20 *12:123 *217:A 14.5234 
21 *12:123 *12:138 11.0742 
22 *12:138 *226:A 28.2328 
23 *12:138 *222:A 9.3 
24 *12:88 *277:B1 9.3 
25 *12:58 *199:B1 9.3 
26 *12:46 *272:B1 9.3 
27 *12:17 *12:179 13.4591 
28 *12:179 *270:A 14.5234 
29 *12:179 *12:198 23.8853 
30 *12:198 *234:A 21.1637 
31 *12:198 *230:A 9.3 
32 *12:13 *291:B1 9.3 
33 *12:9 *12:243 24.9973 
34 *12:243 *284:A 9.3 
35 *12:243 *12:252 4.07513 
36 *12:252 *12:258 23.2896 
37 *12:258 *256:A 26.7631 
38 *12:258 *12:279 2.94181 
39 *12:279 *12:287 13.4646 
40 *12:287 *247:B1 27.8819 
41 *12:287 *12:308 2.14954 
42 *12:308 *259:B1 14.5234 
43 *12:308 *12:325 9.31204 
44 *12:325 *238:C1 29.6191 
45 *12:325 *243:A 22.9586 
46 *12:279 *251:A 25.7075 
47 *12:252 *12:370 3.49641 
48 *12:370 *281:A 22.6799 
49 *12:370 *288:A 12.2418 
*END

*D_NET *168 0.0101904
*CONN
*I *194:C I *D sky130_fd_sc_hd__nor4b_1
*I *179:B I *D sky130_fd_sc_hd__nor3b_1
*I *193:C I *D sky130_fd_sc_hd__nor3_1
*I *271:B1 I *D sky130_fd_sc_hd__o21ai_0
*I *202:A I *D sky130_fd_sc_hd__lpflow_isobufsrc_1
*I *178:B I *D sky130_fd_sc_hd__nor2_1
*I *276:A2 I *D sky130_fd_sc_hd__o31ai_1
*I *199:A3 I *D sky130_fd_sc_hd__a31oi_1
*I *292:A2 I *D sky130_fd_sc_hd__o31ai_1
*I *198:C I *D sky130_fd_sc_hd__or4_1
*I *293:A2 I *D sky130_fd_sc_hd__o41ai_1
*I *273:A2 I *D sky130_fd_sc_hd__a31oi_1
*I *317:Q O *D sky130_fd_sc_hd__dfxtp_1
*CAP
1 *194:C 0.000261777
2 *179:B 5.30617e-05
3 *193:C 0
4 *271:B1 0.000297046
5 *202:A 0
6 *178:B 0.000102303
7 *276:A2 0
8 *199:A3 0.000196366
9 *292:A2 0.000190958
10 *198:C 0
11 *293:A2 0.000243836
12 *273:A2 0.000192521
13 *317:Q 7.14857e-05
14 *168:120 7.69439e-05
15 *168:94 0.000297046
16 *168:58 0.000405276
17 *168:56 0.000139942
18 *168:34 0.000314431
19 *168:32 0.000238851
20 *168:30 0.000382962
21 *168:26 0.000354072
22 *168:24 0.000259837
23 *168:22 0.000499089
24 *178:B *276:B1 0.00013736
25 *179:B *172:A 1.41976e-05
26 *179:B *169:79 0.000350239
27 *179:B *170:51 0.000144254
28 *179:B *170:62 3.83336e-05
29 *199:A3 *169:10 3.45797e-05
30 *199:A3 *169:12 4.41474e-05
31 *199:A3 *169:62 8.68133e-05
32 *271:B1 *202:SLEEP 8.8779e-05
33 *292:A2 *292:A1 2.92412e-06
34 *168:22 *273:A3 1.92172e-05
35 *168:24 *170:40 0
36 *168:26 *170:40 0
37 *168:120 *172:A 0.000220183
38 *168:120 *169:79 0.000220183
39 *199:A1 *199:A3 3.31882e-05
40 *199:A1 *168:24 0
41 *199:A1 *168:26 0
42 *199:A1 *168:30 5.66868e-06
43 *200:B *168:30 0.00015321
44 *269:A *194:C 6.2314e-05
45 *272:A3 *271:B1 2.64831e-05
46 *273:A1 *168:22 6.92705e-05
47 *273:A1 *168:24 0
48 *273:B1 *168:22 0.000172707
49 *274:A1 *194:C 6.08467e-05
50 *274:A3 *194:C 8.92649e-05
51 *274:B1 *168:22 0.000116971
52 *276:A3 *178:B 0.00037069
53 *276:A3 *168:56 1.65872e-05
54 *277:A1 *271:B1 0.000113968
55 *277:A1 *168:26 1.09738e-05
56 *277:A1 *168:30 2.14693e-05
57 *277:A2 *199:A3 0.000341252
58 *292:A3 *292:A2 0.000217937
59 *292:A3 *168:56 0.000137293
60 *292:A3 *168:58 3.8519e-05
61 *292:B1 *199:A3 3.49272e-05
62 *293:A3 *293:A2 0.000548459
63 *293:A3 *168:32 2.09495e-05
64 *293:A3 *168:34 0.000111343
65 *293:A4 *293:A2 0.000238018
66 *293:B1 *292:A2 1.92336e-05
67 *319:D *199:A3 0
68 *12:58 *271:B1 8.08324e-05
69 *12:64 *199:A3 1.2819e-05
70 *12:64 *168:30 0.000382604
71 *12:64 *168:32 5.41377e-05
72 *12:88 *271:B1 0
73 *39:14 *273:A2 0.00011818
74 *39:14 *168:22 0.000118166
75 *49:10 *271:B1 0.000111802
76 *49:10 *168:24 0
77 *120:10 *168:22 2.95757e-05
78 *120:10 *168:24 9.75356e-05
79 *121:6 *194:C 7.92757e-06
80 *126:6 *179:B 0.000118166
81 *133:8 *194:C 4.81015e-05
82 *137:21 *293:A2 0
83 *137:21 *168:30 0
84 *137:21 *168:32 0
85 *137:21 *168:34 0
*RES
1 *317:Q *273:A2 19.878 
2 *273:A2 *168:22 18.9863 
3 *168:22 *168:24 3.07775 
4 *168:24 *168:26 2.6625 
5 *168:26 *168:30 7.96307 
6 *168:30 *168:32 1.41674 
7 *168:32 *168:34 2.24725 
8 *168:34 *293:A2 22.8643 
9 *168:34 *198:C 13.8 
10 *168:32 *168:56 6.6099 
11 *168:56 *168:58 0.446094 
12 *168:58 *292:A2 12.5191 
13 *168:58 *199:A3 26.3608 
14 *168:56 *276:A2 9.3 
15 *168:30 *178:B 18.5838 
16 *168:26 *168:94 4.5 
17 *168:94 *202:A 9.3 
18 *168:94 *271:B1 16.9439 
19 *168:24 *168:120 6.88721 
20 *168:120 *193:C 9.3 
21 *168:120 *179:B 13.351 
22 *168:22 *194:C 21.3715 
*END

*D_NET *169 0.00767683
*CONN
*I *199:A2 I *D sky130_fd_sc_hd__a31oi_1
*I *194:D_N I *D sky130_fd_sc_hd__nor4b_1
*I *178:A I *D sky130_fd_sc_hd__nor2_1
*I *179:A I *D sky130_fd_sc_hd__nor3b_1
*I *173:A I *D sky130_fd_sc_hd__clkinv_1
*I *276:A1 I *D sky130_fd_sc_hd__o31ai_1
*I *292:A1 I *D sky130_fd_sc_hd__o31ai_1
*I *198:B I *D sky130_fd_sc_hd__or4_1
*I *293:A1 I *D sky130_fd_sc_hd__o41ai_1
*I *318:Q O *D sky130_fd_sc_hd__dfxtp_1
*CAP
1 *199:A2 2.19618e-05
2 *194:D_N 0.000127171
3 *178:A 0.000477469
4 *179:A 1.63938e-05
5 *173:A 0
6 *276:A1 1.03162e-05
7 *292:A1 0.000158002
8 *198:B 5.38744e-05
9 *293:A1 0.00028418
10 *318:Q 4.18965e-05
11 *169:90 0.000620985
12 *169:79 0.000198587
13 *169:72 0.000452624
14 *169:62 0.000441659
15 *169:36 0.000206444
16 *169:12 0.000425556
17 *169:10 0.000177073
18 *169:8 0.000226265
19 *194:D_N *179:C_N 5.41227e-05
20 *194:D_N *194:B 0.000122098
21 *198:B *170:8 1.03403e-05
22 *276:A1 *276:B1 0
23 *169:72 *172:A 7.22498e-05
24 *169:79 *172:A 4.56667e-05
25 *179:B *169:79 0.000350239
26 *194:A *194:D_N 6.92705e-05
27 *195:A *194:D_N 4.40506e-05
28 *196:A2 *178:A 1.43848e-05
29 *197:A *178:A 9.25029e-05
30 *197:B *178:A 0.000179286
31 *199:A1 *169:72 3.18543e-05
32 *199:A3 *169:10 3.45797e-05
33 *199:A3 *169:12 4.41474e-05
34 *199:A3 *169:62 8.68133e-05
35 *276:A3 *178:A 0
36 *276:A3 *169:36 5.04829e-06
37 *277:A2 *292:A1 1.61631e-05
38 *277:A2 *169:36 0.000164829
39 *277:A2 *169:72 3.31882e-05
40 *278:B1 *194:D_N 2.27135e-05
41 *292:A2 *292:A1 2.92412e-06
42 *292:A3 *292:A1 2.20702e-05
43 *292:A3 *169:36 2.97421e-05
44 *292:B1 *293:A1 0
45 *292:B1 *169:12 0
46 *293:A3 *293:A1 0.000496689
47 *293:A3 *169:12 9.24241e-05
48 *293:B1 *292:A1 5.07314e-05
49 *293:B1 *293:A1 0
50 *302:CLK *178:A 3.25371e-05
51 *318:D *169:72 1.78514e-05
52 *1:22 *178:A 0
53 *12:58 *199:A2 4.73106e-06
54 *12:58 *169:62 9.26352e-06
55 *12:64 *169:10 9.24241e-05
56 *12:64 *169:12 6.79599e-05
57 *12:64 *169:62 0.000200236
58 *12:88 *199:A2 4.80635e-06
59 *12:88 *169:62 1.41291e-05
60 *12:88 *169:72 5.481e-05
61 *12:92 *169:72 5.54078e-05
62 *39:14 *178:A 1.90218e-05
63 *39:14 *194:D_N 2.53624e-06
64 *121:10 *178:A 0
65 *126:6 *169:79 2.15348e-05
66 *126:6 *169:90 5.0715e-05
67 *128:14 *178:A 0
68 *132:8 *179:A 1.03434e-05
69 *132:8 *169:79 0.000415312
70 *132:8 *169:90 0.000102003
71 *133:8 *194:D_N 2.65831e-05
72 *134:8 *178:A 3.10924e-05
73 *139:20 *169:8 6.50586e-05
74 *139:71 *178:A 2.97007e-05
75 *168:120 *169:79 0.000220183
*RES
1 *318:Q *169:8 14.5234 
2 *169:8 *169:10 1.832 
3 *169:10 *169:12 3.07775 
4 *169:12 *293:A1 22.5842 
5 *169:12 *198:B 14.5234 
6 *169:10 *169:36 6.3326 
7 *169:36 *292:A1 13.3751 
8 *169:36 *276:A1 9.87872 
9 *169:8 *169:62 9.87383 
10 *169:62 *169:72 16.8522 
11 *169:72 *173:A 9.3 
12 *169:72 *169:79 7.93324 
13 *169:79 *179:A 9.87872 
14 *169:79 *169:90 5.778 
15 *169:90 *178:A 26.0483 
16 *169:90 *194:D_N 18.5951 
17 *169:62 *199:A2 9.87872 
*END

*D_NET *170 0.0056506
*CONN
*I *196:B1 I *D sky130_fd_sc_hd__a21oi_1
*I *202:SLEEP I *D sky130_fd_sc_hd__lpflow_isobufsrc_1
*I *271:A1 I *D sky130_fd_sc_hd__o21ai_0
*I *194:B I *D sky130_fd_sc_hd__nor4b_1
*I *179:C_N I *D sky130_fd_sc_hd__nor3b_1
*I *193:A I *D sky130_fd_sc_hd__nor3_1
*I *172:A I *D sky130_fd_sc_hd__clkinv_1
*I *276:B1 I *D sky130_fd_sc_hd__o31ai_1
*I *198:A I *D sky130_fd_sc_hd__or4_1
*I *319:Q O *D sky130_fd_sc_hd__dfxtp_1
*CAP
1 *196:B1 1.81499e-05
2 *202:SLEEP 5.77963e-05
3 *271:A1 0
4 *194:B 6.71964e-05
5 *179:C_N 3.22263e-05
6 *193:A 0
7 *172:A 0.000135565
8 *276:B1 0.000285315
9 *198:A 0
10 *319:Q 0.000118503
11 *170:82 5.77963e-05
12 *170:62 0.000234761
13 *170:51 0.000184935
14 *170:40 0.000475122
15 *170:32 0.000465245
16 *170:19 0.000620522
17 *170:15 0.000259967
18 *170:8 0.000200395
19 *178:B *276:B1 0.00013736
20 *179:B *172:A 1.41976e-05
21 *179:B *170:51 0.000144254
22 *179:B *170:62 3.83336e-05
23 *193:B *172:A 6.75138e-05
24 *193:B *170:40 1.05106e-05
25 *193:B *170:51 2.57986e-05
26 *193:B *170:62 4.65954e-06
27 *194:D_N *179:C_N 5.41227e-05
28 *194:D_N *194:B 0.000122098
29 *195:A *194:B 0
30 *196:A2 *170:19 0
31 *197:B *196:B1 4.30017e-06
32 *198:B *170:8 1.03403e-05
33 *198:D *196:B1 2.41483e-05
34 *198:D *170:8 0.000164829
35 *198:D *170:15 0.00019814
36 *271:B1 *202:SLEEP 8.8779e-05
37 *276:A1 *276:B1 0
38 *276:A3 *276:B1 1.00981e-05
39 *276:A3 *170:19 3.14544e-05
40 *276:A3 *170:32 0.000132381
41 *277:A1 *170:32 0
42 *277:A1 *170:40 2.99929e-05
43 *12:58 *202:SLEEP 9.16936e-05
44 *39:14 *179:C_N 1.87469e-05
45 *39:14 *194:B 5.65074e-05
46 *49:10 *202:SLEEP 0.000116014
47 *49:10 *170:40 6.11624e-05
48 *120:6 *172:A 4.81015e-05
49 *121:10 *170:40 3.39313e-06
50 *126:6 *170:62 0.000217937
51 *137:21 *170:19 7.69281e-05
52 *137:21 *170:32 2.57809e-05
53 *139:12 *170:32 6.94257e-05
54 *139:71 *170:19 0
55 *168:24 *170:40 0
56 *168:26 *170:40 0
57 *168:120 *172:A 0.000220183
58 *169:72 *172:A 7.22498e-05
59 *169:79 *172:A 4.56667e-05
*RES
1 *319:Q *170:8 12.6758 
2 *170:8 *198:A 9.3 
3 *170:8 *170:15 2.94181 
4 *170:15 *170:19 9.23876 
5 *170:19 *276:B1 18.8397 
6 *170:19 *170:32 5.56926 
7 *170:32 *170:40 10.6968 
8 *170:40 *172:A 15.0389 
9 *170:40 *170:51 1.8326 
10 *170:51 *193:A 9.3 
11 *170:51 *170:62 8.57513 
12 *170:62 *179:C_N 14.8015 
13 *170:62 *194:B 16.4625 
14 *170:32 *170:82 4.5 
15 *170:82 *271:A1 9.3 
16 *170:82 *202:SLEEP 12.2659 
17 *170:15 *196:B1 10.0234 
*END

*D_NET *171 0.00909762
*CONN
*I *205:A I *D sky130_fd_sc_hd__nor2_1
*I *268:B1 I *D sky130_fd_sc_hd__a21oi_1
*I *206:A I *D sky130_fd_sc_hd__lpflow_inputiso1p_1
*I *273:A3 I *D sky130_fd_sc_hd__a31oi_1
*I *174:A I *D sky130_fd_sc_hd__clkinv_1
*I *274:A2 I *D sky130_fd_sc_hd__a31oi_1
*I *278:A2 I *D sky130_fd_sc_hd__o21ai_0
*I *279:A I *D sky130_fd_sc_hd__and2_0
*I *180:A I *D sky130_fd_sc_hd__nand2_1
*I *316:Q O *D sky130_fd_sc_hd__dfxtp_1
*CAP
1 *205:A 0.000170993
2 *268:B1 0
3 *206:A 0
4 *273:A3 0.00022132
5 *174:A 0
6 *274:A2 0.000235189
7 *278:A2 5.54169e-05
8 *279:A 0
9 *180:A 0.000301798
10 *316:Q 0.000394436
11 *171:78 0.000342019
12 *171:74 0.000602877
13 *171:66 0.000667856
14 *171:60 0.000525378
15 *171:56 0.000452215
16 *171:18 0.000694337
17 *171:10 0.000693419
18 *180:B *180:A 1.08355e-05
19 *205:B *205:A 4.80635e-06
20 *208:A2 *171:66 0.000111802
21 *262:A2 *171:56 4.27003e-05
22 *268:A2 *205:A 6.50727e-05
23 *268:A2 *171:60 0.000162663
24 *270:A *171:66 6.50727e-05
25 *270:C *171:66 0.00011818
26 *273:A1 *273:A3 0.00023636
27 *273:B1 *171:78 5.04879e-05
28 *274:A3 *274:A2 0.000364356
29 *278:B1 *278:A2 6.50727e-05
30 *278:B1 *171:10 4.3116e-06
31 *278:B1 *171:18 9.98029e-06
32 *279:B *180:A 0.000525814
33 *279:B *171:18 1.80122e-05
34 *282:B *171:10 0
35 *282:B *171:18 0
36 *289:B *171:18 4.58666e-05
37 *304:D *171:74 0
38 *323:CLK *171:18 7.14746e-05
39 *323:D *171:18 0
40 *12:17 *180:A 3.58208e-05
41 *12:17 *171:18 8.90311e-06
42 *39:14 *273:A3 0.000145932
43 *49:27 *171:78 4.01573e-05
44 *51:30 *171:66 0.000282235
45 *51:50 *205:A 0.000113197
46 *51:50 *171:60 6.50954e-05
47 *51:50 *171:66 0.000350535
48 *51:59 *205:A 4.82966e-05
49 *53:14 *171:66 0.000215785
50 *53:14 *171:74 2.95757e-05
51 *108:8 *171:18 4.27148e-05
52 *109:6 *171:18 7.34948e-06
53 *126:23 *180:A 8.02256e-05
54 *138:67 *171:10 7.08723e-06
55 *138:67 *171:56 2.36494e-05
56 *147:10 *171:74 3.37843e-05
57 *159:23 *278:A2 0.000217937
58 *168:22 *273:A3 1.92172e-05
*RES
1 *316:Q *171:10 18.2951 
2 *171:10 *171:18 13.0352 
3 *171:18 *180:A 18.9453 
4 *171:18 *279:A 9.3 
5 *171:10 *278:A2 16.1872 
6 *316:Q *171:56 21.41 
7 *171:56 *171:60 4.07513 
8 *171:60 *171:66 14.2268 
9 *171:66 *171:74 10.973 
10 *171:74 *171:78 7.57775 
11 *171:78 *274:A2 13.351 
12 *171:78 *174:A 9.3 
13 *171:74 *273:A3 20.6723 
14 *171:66 *206:A 9.3 
15 *171:60 *268:B1 9.3 
16 *171:56 *205:A 14.4843 
*END

*D_NET *13 0.00341722
*CONN
*P tx O
*I *201:B2 I *D sky130_fd_sc_hd__a221o_1
*I *302:Q O *D sky130_fd_sc_hd__dfxtp_1
*CAP
1 tx 0.000517685
2 *201:B2 0.000381145
3 *302:Q 8.33801e-05
4 *13:8 0.00098221
5 tx *299:D 0.000594162
6 tx *301:D 0.000101133
7 tx *166:12 0
8 *201:B2 *201:A1 0.000251154
9 *201:B2 *201:A2 3.85049e-05
10 *201:B2 *201:B1 5.58947e-05
11 *201:B2 *201:C1 1.64789e-05
12 *13:8 *299:CLK 6.85778e-05
13 *13:8 *138:15 4.20184e-06
14 *187:A1 tx 9.08676e-05
15 *189:A1 tx 0
16 *1:22 *13:8 0
17 *2:17 tx 0.00023182
18 *12:9 tx 0
19 *12:9 *13:8 0
*RES
1 *302:Q *13:8 15.8396 
2 *13:8 *201:B2 24.94 
3 *13:8 tx 19.2604 
*END
